Automatically generated mesh
    283 
Reciprocal lattice
    0.00000000000000    0.00000000000000    0.00000000000000             1
    0.16666666666667    0.00000000000000    0.00000000000000             1
    0.33333333333333    0.00000000000000    0.00000000000000             1
    0.50000000000000    0.00000000000000    0.00000000000000             1
   -0.33333333333333    0.00000000000000    0.00000000000000             1
   -0.16666666666667    0.00000000000000   -0.00000000000000             1
    0.00000000000000    0.16666666666667    0.00000000000000             1
    0.16666666666667    0.16666666666667    0.00000000000000             1
    0.33333333333333    0.16666666666667    0.00000000000000             1
    0.50000000000000    0.16666666666667    0.00000000000000             1
   -0.33333333333333    0.16666666666667    0.00000000000000             1
   -0.16666666666667    0.16666666666667    0.00000000000000             1
    0.00000000000000    0.33333333333333    0.00000000000000             1
    0.16666666666667    0.33333333333333    0.00000000000000             1
    0.33333333333333    0.33333333333333    0.00000000000000             1
    0.50000000000000    0.33333333333333   -0.00000000000000             1
   -0.33333333333333    0.33333333333333    0.00000000000000             1
   -0.16666666666667    0.33333333333333    0.00000000000000             1
    0.00000000000000    0.50000000000000    0.00000000000000             1
    0.16666666666667    0.50000000000000    0.00000000000000             1
    0.33333333333333    0.50000000000000   -0.00000000000000             1
    0.50000000000000    0.50000000000000    0.00000000000000             1
   -0.33333333333333    0.50000000000000   -0.00000000000000             1
   -0.16666666666667    0.50000000000000   -0.00000000000000             1
    0.00000000000000   -0.33333333333333    0.00000000000000             1
    0.16666666666667   -0.33333333333333    0.00000000000000             1
    0.33333333333333   -0.33333333333333    0.00000000000000             1
    0.50000000000000   -0.33333333333333   -0.00000000000000             1
   -0.33333333333333   -0.33333333333333    0.00000000000000             1
   -0.16666666666667   -0.33333333333333    0.00000000000000             1
    0.00000000000000   -0.16666666666667   -0.00000000000000             1
    0.16666666666667   -0.16666666666667    0.00000000000000             1
    0.33333333333333   -0.16666666666667    0.00000000000000             1
    0.50000000000000   -0.16666666666667   -0.00000000000000             1
   -0.33333333333333   -0.16666666666667    0.00000000000000             1
   -0.16666666666667   -0.16666666666667   -0.00000000000000             1
    0.00000000000000    0.00000000000000    0.25000000000000             1
    0.16666666666667    0.00000000000000    0.25000000000000             1
    0.33333333333333    0.00000000000000    0.25000000000000             1
    0.50000000000000    0.00000000000000    0.25000000000000             1
   -0.33333333333333    0.00000000000000    0.25000000000000             1
   -0.16666666666667    0.00000000000000    0.25000000000000             1
    0.00000000000000    0.16666666666667    0.25000000000000             1
    0.16666666666667    0.16666666666667    0.25000000000000             1
    0.33333333333333    0.16666666666667    0.25000000000000             1
    0.50000000000000    0.16666666666667    0.25000000000000             1
   -0.33333333333333    0.16666666666667    0.25000000000000             1
   -0.16666666666667    0.16666666666667    0.25000000000000             1
    0.00000000000000    0.33333333333333    0.25000000000000             1
    0.16666666666667    0.33333333333333    0.25000000000000             1
    0.33333333333333    0.33333333333333    0.25000000000000             1
    0.50000000000000    0.33333333333333    0.25000000000000             1
   -0.33333333333333    0.33333333333333    0.25000000000000             1
   -0.16666666666667    0.33333333333333    0.25000000000000             1
    0.00000000000000    0.50000000000000    0.25000000000000             1
    0.16666666666667    0.50000000000000    0.25000000000000             1
    0.33333333333333    0.50000000000000    0.25000000000000             1
    0.50000000000000    0.50000000000000    0.25000000000000             1
   -0.33333333333333    0.50000000000000    0.25000000000000             1
   -0.16666666666667    0.50000000000000    0.25000000000000             1
    0.00000000000000   -0.33333333333333    0.25000000000000             1
    0.16666666666667   -0.33333333333333    0.25000000000000             1
    0.33333333333333   -0.33333333333333    0.25000000000000             1
    0.50000000000000   -0.33333333333333    0.25000000000000             1
   -0.33333333333333   -0.33333333333333    0.25000000000000             1
   -0.16666666666667   -0.33333333333333    0.25000000000000             1
    0.00000000000000   -0.16666666666667    0.25000000000000             1
    0.16666666666667   -0.16666666666667    0.25000000000000             1
    0.33333333333333   -0.16666666666667    0.25000000000000             1
    0.50000000000000   -0.16666666666667    0.25000000000000             1
   -0.33333333333333   -0.16666666666667    0.25000000000000             1
   -0.16666666666667   -0.16666666666667    0.25000000000000             1
    0.00000000000000    0.00000000000000    0.50000000000000             1
    0.16666666666667    0.00000000000000    0.50000000000000             1
    0.33333333333333    0.00000000000000    0.50000000000000             1
    0.50000000000000    0.00000000000000    0.50000000000000             1
   -0.33333333333333    0.00000000000000    0.50000000000000             1
   -0.16666666666667    0.00000000000000    0.50000000000000             1
    0.00000000000000    0.16666666666667    0.50000000000000             1
    0.16666666666667    0.16666666666667    0.50000000000000             1
    0.33333333333333    0.16666666666667    0.50000000000000             1
    0.50000000000000    0.16666666666667    0.50000000000000             1
   -0.33333333333333    0.16666666666667    0.50000000000000             1
   -0.16666666666667    0.16666666666667    0.50000000000000             1
    0.00000000000000    0.33333333333333    0.50000000000000             1
    0.16666666666667    0.33333333333333    0.50000000000000             1
    0.33333333333333    0.33333333333333    0.50000000000000             1
    0.50000000000000    0.33333333333333    0.50000000000000             1
   -0.33333333333333    0.33333333333333    0.50000000000000             1
   -0.16666666666667    0.33333333333333    0.50000000000000             1
    0.00000000000000    0.50000000000000    0.50000000000000             1
    0.16666666666667    0.50000000000000    0.50000000000000             1
    0.33333333333333    0.50000000000000    0.50000000000000             1
    0.50000000000000    0.50000000000000    0.50000000000000             1
   -0.33333333333333    0.50000000000000    0.50000000000000             1
   -0.16666666666667    0.50000000000000    0.50000000000000             1
    0.00000000000000   -0.33333333333333    0.50000000000000             1
    0.16666666666667   -0.33333333333333    0.50000000000000             1
    0.33333333333333   -0.33333333333333    0.50000000000000             1
    0.50000000000000   -0.33333333333333    0.50000000000000             1
   -0.33333333333333   -0.33333333333333    0.50000000000000             1
   -0.16666666666667   -0.33333333333333    0.50000000000000             1
    0.00000000000000   -0.16666666666667    0.50000000000000             1
    0.16666666666667   -0.16666666666667    0.50000000000000             1
    0.33333333333333   -0.16666666666667    0.50000000000000             1
    0.50000000000000   -0.16666666666667    0.50000000000000             1
   -0.33333333333333   -0.16666666666667    0.50000000000000             1
   -0.16666666666667   -0.16666666666667    0.50000000000000             1
    0.00000000000000    0.00000000000000   -0.25000000000000             1
    0.16666666666667    0.00000000000000   -0.25000000000000             1
    0.33333333333333    0.00000000000000   -0.25000000000000             1
    0.50000000000000    0.00000000000000   -0.25000000000000             1
   -0.33333333333333    0.00000000000000   -0.25000000000000             1
   -0.16666666666667    0.00000000000000   -0.25000000000000             1
    0.00000000000000    0.16666666666667   -0.25000000000000             1
    0.16666666666667    0.16666666666667   -0.25000000000000             1
    0.33333333333333    0.16666666666667   -0.25000000000000             1
    0.50000000000000    0.16666666666667   -0.25000000000000             1
   -0.33333333333333    0.16666666666667   -0.25000000000000             1
   -0.16666666666667    0.16666666666667   -0.25000000000000             1
    0.00000000000000    0.33333333333333   -0.25000000000000             1
    0.16666666666667    0.33333333333333   -0.25000000000000             1
    0.33333333333333    0.33333333333333   -0.25000000000000             1
    0.50000000000000    0.33333333333333   -0.25000000000000             1
   -0.33333333333333    0.33333333333333   -0.25000000000000             1
   -0.16666666666667    0.33333333333333   -0.25000000000000             1
    0.00000000000000    0.50000000000000   -0.25000000000000             1
    0.16666666666667    0.50000000000000   -0.25000000000000             1
    0.33333333333333    0.50000000000000   -0.25000000000000             1
    0.50000000000000    0.50000000000000   -0.25000000000000             1
   -0.33333333333333    0.50000000000000   -0.25000000000000             1
   -0.16666666666667    0.50000000000000   -0.25000000000000             1
    0.00000000000000   -0.33333333333333   -0.25000000000000             1
    0.16666666666667   -0.33333333333333   -0.25000000000000             1
    0.33333333333333   -0.33333333333333   -0.25000000000000             1
    0.50000000000000   -0.33333333333333   -0.25000000000000             1
   -0.33333333333333   -0.33333333333333   -0.25000000000000             1
   -0.16666666666667   -0.33333333333333   -0.25000000000000             1
    0.00000000000000   -0.16666666666667   -0.25000000000000             1
    0.16666666666667   -0.16666666666667   -0.25000000000000             1
    0.33333333333333   -0.16666666666667   -0.25000000000000             1
    0.50000000000000   -0.16666666666667   -0.25000000000000             1
   -0.33333333333333   -0.16666666666667   -0.25000000000000             1
   -0.16666666666667   -0.16666666666667   -0.25000000000000             1
0.00000000  0.00000000  0.00000000   0.00
0.00000000  0.01515152  0.00000000   0.00
0.00000000  0.03030303  0.00000000   0.00
0.00000000  0.04545455  0.00000000   0.00
0.00000000  0.06060606  0.00000000   0.00
0.00000000  0.07575758  0.00000000   0.00
0.00000000  0.09090909  0.00000000   0.00
0.00000000  0.10606061  0.00000000   0.00
0.00000000  0.12121212  0.00000000   0.00
0.00000000  0.13636364  0.00000000   0.00
0.00000000  0.15151516  0.00000000   0.00
0.00000000  0.16666667  0.00000000   0.00
0.00000000  0.18181819  0.00000000   0.00
0.00000000  0.19696970  0.00000000   0.00
0.00000000  0.21212122  0.00000000   0.00
0.00000000  0.22727273  0.00000000   0.00
0.00000000  0.24242425  0.00000000   0.00
0.00000000  0.25757575  0.00000000   0.00
0.00000000  0.27272728  0.00000000   0.00
0.00000000  0.28787881  0.00000000   0.00
0.00000000  0.30303031  0.00000000   0.00
0.00000000  0.31818181  0.00000000   0.00
0.00000000  0.33333334  0.00000000   0.00
0.00000000  0.34848487  0.00000000   0.00
0.00000000  0.36363637  0.00000000   0.00
0.00000000  0.37878788  0.00000000   0.00
0.00000000  0.39393941  0.00000000   0.00
0.00000000  0.40909094  0.00000000   0.00
0.00000000  0.42424244  0.00000000   0.00
0.00000000  0.43939394  0.00000000   0.00
0.00000000  0.45454547  0.00000000   0.00
0.00000000  0.46969700  0.00000000   0.00
0.00000000  0.48484850  0.00000000   0.00
0.00000000  0.50000000  0.00000000   0.00
0.01515152  0.50000000  0.00000000   0.00
0.03030303  0.50000000  0.00000000   0.00
0.04545455  0.50000000  0.00000000   0.00
0.06060606  0.50000000  0.00000000   0.00
0.07575758  0.50000000  0.00000000   0.00
0.09090909  0.50000000  0.00000000   0.00
0.10606061  0.50000000  0.00000000   0.00
0.12121212  0.50000000  0.00000000   0.00
0.13636364  0.50000000  0.00000000   0.00
0.15151516  0.50000000  0.00000000   0.00
0.16666667  0.50000000  0.00000000   0.00
0.18181819  0.50000000  0.00000000   0.00
0.19696970  0.50000000  0.00000000   0.00
0.21212122  0.50000000  0.00000000   0.00
0.22727273  0.50000000  0.00000000   0.00
0.24242425  0.50000000  0.00000000   0.00
0.25757575  0.50000000  0.00000000   0.00
0.27272728  0.50000000  0.00000000   0.00
0.28787881  0.50000000  0.00000000   0.00
0.30303031  0.50000000  0.00000000   0.00
0.31818181  0.50000000  0.00000000   0.00
0.33333334  0.50000000  0.00000000   0.00
0.34848487  0.50000000  0.00000000   0.00
0.36363637  0.50000000  0.00000000   0.00
0.37878788  0.50000000  0.00000000   0.00
0.39393941  0.50000000  0.00000000   0.00
0.40909094  0.50000000  0.00000000   0.00
0.42424244  0.50000000  0.00000000   0.00
0.43939394  0.50000000  0.00000000   0.00
0.45454547  0.50000000  0.00000000   0.00
0.46969700  0.50000000  0.00000000   0.00
0.48484850  0.50000000  0.00000000   0.00
0.50000000  0.50000000  0.00000000   0.00
0.48913044  0.48913044  0.00000000   0.00
0.47826087  0.47826087  0.00000000   0.00
0.46739131  0.46739131  0.00000000   0.00
0.45652175  0.45652175  0.00000000   0.00
0.44565219  0.44565219  0.00000000   0.00
0.43478262  0.43478262  0.00000000   0.00
0.42391306  0.42391306  0.00000000   0.00
0.41304347  0.41304347  0.00000000   0.00
0.40217391  0.40217391  0.00000000   0.00
0.39130434  0.39130434  0.00000000   0.00
0.38043478  0.38043478  0.00000000   0.00
0.36956522  0.36956522  0.00000000   0.00
0.35869566  0.35869566  0.00000000   0.00
0.34782609  0.34782609  0.00000000   0.00
0.33695653  0.33695653  0.00000000   0.00
0.32608694  0.32608694  0.00000000   0.00
0.31521741  0.31521741  0.00000000   0.00
0.30434781  0.30434781  0.00000000   0.00
0.29347825  0.29347825  0.00000000   0.00
0.28260869  0.28260869  0.00000000   0.00
0.27173913  0.27173913  0.00000000   0.00
0.26086956  0.26086956  0.00000000   0.00
0.25000000  0.25000000  0.00000000   0.00
0.23913044  0.23913044  0.00000000   0.00
0.22826087  0.22826087  0.00000000   0.00
0.21739131  0.21739131  0.00000000   0.00
0.20652175  0.20652175  0.00000000   0.00
0.19565219  0.19565219  0.00000000   0.00
0.18478262  0.18478262  0.00000000   0.00
0.17391306  0.17391306  0.00000000   0.00
0.16304350  0.16304350  0.00000000   0.00
0.15217391  0.15217391  0.00000000   0.00
0.14130434  0.14130434  0.00000000   0.00
0.13043481  0.13043481  0.00000000   0.00
0.11956522  0.11956522  0.00000000   0.00
0.10869566  0.10869566  0.00000000   0.00
0.09782609  0.09782609  0.00000000   0.00
0.08695653  0.08695653  0.00000000   0.00
0.07608694  0.07608694  0.00000000   0.00
0.06521741  0.06521741  0.00000000   0.00
0.05434781  0.05434781  0.00000000   0.00
0.04347828  0.04347828  0.00000000   0.00
0.03260872  0.03260872  0.00000000   0.00
0.02173913  0.02173913  0.00000000   0.00
0.01086959  0.01086959  0.00000000   0.00
0.00000000  0.00000000  0.00000000   0.00
0.00000000  0.00000000  0.01923077   0.00
0.00000000  0.00000000  0.03846154   0.00
0.00000000  0.00000000  0.05769231   0.00
0.00000000  0.00000000  0.07692308   0.00
0.00000000  0.00000000  0.09615385   0.00
0.00000000  0.00000000  0.11538462   0.00
0.00000000  0.00000000  0.13461539   0.00
0.00000000  0.00000000  0.15384616   0.00
0.00000000  0.00000000  0.17307693   0.00
0.00000000  0.00000000  0.19230770   0.00
0.00000000  0.00000000  0.21153846   0.00
0.00000000  0.00000000  0.23076925   0.00
0.00000000  0.00000000  0.25000000   0.00
0.00000000  0.00000000  0.26923078   0.00
0.00000000  0.00000000  0.28846154   0.00
0.00000000  0.00000000  0.30769232   0.00
0.00000000  0.00000000  0.32692310   0.00
0.00000000  0.00000000  0.34615386   0.00
0.00000000  0.00000000  0.36538464   0.00
0.00000000  0.00000000  0.38461539   0.00
0.00000000  0.00000000  0.40384617   0.00
0.00000000  0.00000000  0.42307693   0.00
0.00000000  0.00000000  0.44230771   0.00
0.00000000  0.00000000  0.46153849   0.00
0.00000000  0.00000000  0.48076925   0.00
0.00000000  0.00000000  0.50000000   0.00
