GaAs (Madelung Handbook, RT)            
   5.65360000000000     
     0.5000000000000000    0.5000000000000000    0.0000000000000000
     0.5000000000000000    0.0000000000000000   -0.5000000000000000
     0.0000000000000000    0.5000000000000000   -0.5000000000000000
   Ga   As
     1     1
Direct
  0.0000000000000000  0.0000000000000000  0.0000000000000000
  0.2500000000000000  0.2500000000000000  0.2500000000000000
 
  0.00000000E+00  0.00000000E+00  0.00000000E+00
  0.00000000E+00  0.00000000E+00  0.00000000E+00
