Automatically generated mesh
    346
Reciprocal lattice
    0.00000000000000    0.00000000000000    0.00000000000000             1
    0.16666666666667    0.00000000000000    0.00000000000000             1
    0.33333333333333    0.00000000000000    0.00000000000000             1
    0.50000000000000    0.00000000000000    0.00000000000000             1
   -0.33333333333333   -0.00000000000000    0.00000000000000             1
   -0.16666666666667   -0.00000000000000   -0.00000000000000             1
    0.00000000000000    0.16666666666667    0.00000000000000             1
    0.16666666666667    0.16666666666667    0.00000000000000             1
    0.33333333333333    0.16666666666667    0.00000000000000             1
    0.50000000000000    0.16666666666667    0.00000000000000             1
   -0.33333333333333    0.16666666666667   -0.00000000000000             1
   -0.16666666666667    0.16666666666667   -0.00000000000000             1
    0.00000000000000    0.33333333333333    0.00000000000000             1
    0.16666666666667    0.33333333333333    0.00000000000000             1
    0.33333333333333    0.33333333333333    0.00000000000000             1
    0.50000000000000    0.33333333333333    0.00000000000000             1
   -0.33333333333333    0.33333333333333    0.00000000000000             1
   -0.16666666666667    0.33333333333333   -0.00000000000000             1
    0.00000000000000    0.50000000000000    0.00000000000000             1
    0.16666666666667    0.50000000000000    0.00000000000000             1
    0.33333333333333    0.50000000000000    0.00000000000000             1
    0.50000000000000    0.50000000000000    0.00000000000000             1
   -0.33333333333333    0.50000000000000   -0.00000000000000             1
   -0.16666666666667    0.50000000000000   -0.00000000000000             1
    0.00000000000000   -0.33333333333333   -0.00000000000000             1
    0.16666666666667   -0.33333333333333    0.00000000000000             1
    0.33333333333333   -0.33333333333333    0.00000000000000             1
    0.50000000000000   -0.33333333333333    0.00000000000000             1
   -0.33333333333333   -0.33333333333333   -0.00000000000000             1
   -0.16666666666667   -0.33333333333333   -0.00000000000000             1
    0.00000000000000   -0.16666666666667   -0.00000000000000             1
    0.16666666666667   -0.16666666666667    0.00000000000000             1
    0.33333333333333   -0.16666666666667    0.00000000000000             1
    0.50000000000000   -0.16666666666667    0.00000000000000             1
   -0.33333333333333   -0.16666666666667   -0.00000000000000             1
   -0.16666666666667   -0.16666666666667   -0.00000000000000             1
    0.00000000000000    0.00000000000000    0.16666666666667             1
    0.16666666666667    0.00000000000000    0.16666666666667             1
    0.33333333333333    0.00000000000000    0.16666666666667             1
    0.50000000000000    0.00000000000000    0.16666666666667             1
   -0.33333333333333   -0.00000000000000    0.16666666666667             1
   -0.16666666666667   -0.00000000000000    0.16666666666667             1
    0.00000000000000    0.16666666666667    0.16666666666667             1
    0.16666666666667    0.16666666666667    0.16666666666667             1
    0.33333333333333    0.16666666666667    0.16666666666667             1
    0.50000000000000    0.16666666666667    0.16666666666667             1
   -0.33333333333333    0.16666666666667    0.16666666666667             1
   -0.16666666666667    0.16666666666667    0.16666666666667             1
    0.00000000000000    0.33333333333333    0.16666666666667             1
    0.16666666666667    0.33333333333333    0.16666666666667             1
    0.33333333333333    0.33333333333333    0.16666666666667             1
    0.50000000000000    0.33333333333333    0.16666666666667             1
   -0.33333333333333    0.33333333333333    0.16666666666667             1
   -0.16666666666667    0.33333333333333    0.16666666666667             1
    0.00000000000000    0.50000000000000    0.16666666666667             1
    0.16666666666667    0.50000000000000    0.16666666666667             1
    0.33333333333333    0.50000000000000    0.16666666666667             1
    0.50000000000000    0.50000000000000    0.16666666666667             1
   -0.33333333333333    0.50000000000000    0.16666666666667             1
   -0.16666666666667    0.50000000000000    0.16666666666667             1
    0.00000000000000   -0.33333333333333    0.16666666666667             1
    0.16666666666667   -0.33333333333333    0.16666666666667             1
    0.33333333333333   -0.33333333333333    0.16666666666667             1
    0.50000000000000   -0.33333333333333    0.16666666666667             1
   -0.33333333333333   -0.33333333333333    0.16666666666667             1
   -0.16666666666667   -0.33333333333333    0.16666666666667             1
    0.00000000000000   -0.16666666666667    0.16666666666667             1
    0.16666666666667   -0.16666666666667    0.16666666666667             1
    0.33333333333333   -0.16666666666667    0.16666666666667             1
    0.50000000000000   -0.16666666666667    0.16666666666667             1
   -0.33333333333333   -0.16666666666667    0.16666666666667             1
   -0.16666666666667   -0.16666666666667    0.16666666666667             1
    0.00000000000000    0.00000000000000    0.33333333333333             1
    0.16666666666667    0.00000000000000    0.33333333333333             1
    0.33333333333333    0.00000000000000    0.33333333333333             1
    0.50000000000000    0.00000000000000    0.33333333333333             1
   -0.33333333333333   -0.00000000000000    0.33333333333333             1
   -0.16666666666667   -0.00000000000000    0.33333333333333             1
    0.00000000000000    0.16666666666667    0.33333333333333             1
    0.16666666666667    0.16666666666667    0.33333333333333             1
    0.33333333333333    0.16666666666667    0.33333333333333             1
    0.50000000000000    0.16666666666667    0.33333333333333             1
   -0.33333333333333    0.16666666666667    0.33333333333333             1
   -0.16666666666667    0.16666666666667    0.33333333333333             1
    0.00000000000000    0.33333333333333    0.33333333333333             1
    0.16666666666667    0.33333333333333    0.33333333333333             1
    0.33333333333333    0.33333333333333    0.33333333333333             1
    0.50000000000000    0.33333333333333    0.33333333333333             1
   -0.33333333333333    0.33333333333333    0.33333333333333             1
   -0.16666666666667    0.33333333333333    0.33333333333333             1
    0.00000000000000    0.50000000000000    0.33333333333333             1
    0.16666666666667    0.50000000000000    0.33333333333333             1
    0.33333333333333    0.50000000000000    0.33333333333333             1
    0.50000000000000    0.50000000000000    0.33333333333333             1
   -0.33333333333333    0.50000000000000    0.33333333333333             1
   -0.16666666666667    0.50000000000000    0.33333333333333             1
    0.00000000000000   -0.33333333333333    0.33333333333333             1
    0.16666666666667   -0.33333333333333    0.33333333333333             1
    0.33333333333333   -0.33333333333333    0.33333333333333             1
    0.50000000000000   -0.33333333333333    0.33333333333333             1
   -0.33333333333333   -0.33333333333333    0.33333333333333             1
   -0.16666666666667   -0.33333333333333    0.33333333333333             1
    0.00000000000000   -0.16666666666667    0.33333333333333             1
    0.16666666666667   -0.16666666666667    0.33333333333333             1
    0.33333333333333   -0.16666666666667    0.33333333333333             1
    0.50000000000000   -0.16666666666667    0.33333333333333             1
   -0.33333333333333   -0.16666666666667    0.33333333333333             1
   -0.16666666666667   -0.16666666666667    0.33333333333333             1
    0.00000000000000    0.00000000000000    0.50000000000000             1
    0.16666666666667    0.00000000000000    0.50000000000000             1
    0.33333333333333    0.00000000000000    0.50000000000000             1
    0.50000000000000    0.00000000000000    0.50000000000000             1
   -0.33333333333333   -0.00000000000000    0.50000000000000             1
   -0.16666666666667   -0.00000000000000    0.50000000000000             1
    0.00000000000000    0.16666666666667    0.50000000000000             1
    0.16666666666667    0.16666666666667    0.50000000000000             1
    0.33333333333333    0.16666666666667    0.50000000000000             1
    0.50000000000000    0.16666666666667    0.50000000000000             1
   -0.33333333333333    0.16666666666667    0.50000000000000             1
   -0.16666666666667    0.16666666666667    0.50000000000000             1
    0.00000000000000    0.33333333333333    0.50000000000000             1
    0.16666666666667    0.33333333333333    0.50000000000000             1
    0.33333333333333    0.33333333333333    0.50000000000000             1
    0.50000000000000    0.33333333333333    0.50000000000000             1
   -0.33333333333333    0.33333333333333    0.50000000000000             1
   -0.16666666666667    0.33333333333333    0.50000000000000             1
    0.00000000000000    0.50000000000000    0.50000000000000             1
    0.16666666666667    0.50000000000000    0.50000000000000             1
    0.33333333333333    0.50000000000000    0.50000000000000             1
    0.50000000000000    0.50000000000000    0.50000000000000             1
   -0.33333333333333    0.50000000000000    0.50000000000000             1
   -0.16666666666667    0.50000000000000    0.50000000000000             1
    0.00000000000000   -0.33333333333333    0.50000000000000             1
    0.16666666666667   -0.33333333333333    0.50000000000000             1
    0.33333333333333   -0.33333333333333    0.50000000000000             1
    0.50000000000000   -0.33333333333333    0.50000000000000             1
   -0.33333333333333   -0.33333333333333    0.50000000000000             1
   -0.16666666666667   -0.33333333333333    0.50000000000000             1
    0.00000000000000   -0.16666666666667    0.50000000000000             1
    0.16666666666667   -0.16666666666667    0.50000000000000             1
    0.33333333333333   -0.16666666666667    0.50000000000000             1
    0.50000000000000   -0.16666666666667    0.50000000000000             1
   -0.33333333333333   -0.16666666666667    0.50000000000000             1
   -0.16666666666667   -0.16666666666667    0.50000000000000             1
    0.00000000000000    0.00000000000000   -0.33333333333333             1
    0.16666666666667    0.00000000000000   -0.33333333333333             1
    0.33333333333333    0.00000000000000   -0.33333333333333             1
    0.50000000000000    0.00000000000000   -0.33333333333333             1
   -0.33333333333333   -0.00000000000000   -0.33333333333333             1
   -0.16666666666667   -0.00000000000000   -0.33333333333333             1
    0.00000000000000    0.16666666666667   -0.33333333333333             1
    0.16666666666667    0.16666666666667   -0.33333333333333             1
    0.33333333333333    0.16666666666667   -0.33333333333333             1
    0.50000000000000    0.16666666666667   -0.33333333333333             1
   -0.33333333333333    0.16666666666667   -0.33333333333333             1
   -0.16666666666667    0.16666666666667   -0.33333333333333             1
    0.00000000000000    0.33333333333333   -0.33333333333333             1
    0.16666666666667    0.33333333333333   -0.33333333333333             1
    0.33333333333333    0.33333333333333   -0.33333333333333             1
    0.50000000000000    0.33333333333333   -0.33333333333333             1
   -0.33333333333333    0.33333333333333   -0.33333333333333             1
   -0.16666666666667    0.33333333333333   -0.33333333333333             1
    0.00000000000000    0.50000000000000   -0.33333333333333             1
    0.16666666666667    0.50000000000000   -0.33333333333333             1
    0.33333333333333    0.50000000000000   -0.33333333333333             1
    0.50000000000000    0.50000000000000   -0.33333333333333             1
   -0.33333333333333    0.50000000000000   -0.33333333333333             1
   -0.16666666666667    0.50000000000000   -0.33333333333333             1
    0.00000000000000   -0.33333333333333   -0.33333333333333             1
    0.16666666666667   -0.33333333333333   -0.33333333333333             1
    0.33333333333333   -0.33333333333333   -0.33333333333333             1
    0.50000000000000   -0.33333333333333   -0.33333333333333             1
   -0.33333333333333   -0.33333333333333   -0.33333333333333             1
   -0.16666666666667   -0.33333333333333   -0.33333333333333             1
    0.00000000000000   -0.16666666666667   -0.33333333333333             1
    0.16666666666667   -0.16666666666667   -0.33333333333333             1
    0.33333333333333   -0.16666666666667   -0.33333333333333             1
    0.50000000000000   -0.16666666666667   -0.33333333333333             1
   -0.33333333333333   -0.16666666666667   -0.33333333333333             1
   -0.16666666666667   -0.16666666666667   -0.33333333333333             1
    0.00000000000000    0.00000000000000   -0.16666666666667             1
    0.16666666666667    0.00000000000000   -0.16666666666667             1
    0.33333333333333    0.00000000000000   -0.16666666666667             1
    0.50000000000000    0.00000000000000   -0.16666666666667             1
   -0.33333333333333   -0.00000000000000   -0.16666666666667             1
   -0.16666666666667   -0.00000000000000   -0.16666666666667             1
    0.00000000000000    0.16666666666667   -0.16666666666667             1
    0.16666666666667    0.16666666666667   -0.16666666666667             1
    0.33333333333333    0.16666666666667   -0.16666666666667             1
    0.50000000000000    0.16666666666667   -0.16666666666667             1
   -0.33333333333333    0.16666666666667   -0.16666666666667             1
   -0.16666666666667    0.16666666666667   -0.16666666666667             1
    0.00000000000000    0.33333333333333   -0.16666666666667             1
    0.16666666666667    0.33333333333333   -0.16666666666667             1
    0.33333333333333    0.33333333333333   -0.16666666666667             1
    0.50000000000000    0.33333333333333   -0.16666666666667             1
   -0.33333333333333    0.33333333333333   -0.16666666666667             1
   -0.16666666666667    0.33333333333333   -0.16666666666667             1
    0.00000000000000    0.50000000000000   -0.16666666666667             1
    0.16666666666667    0.50000000000000   -0.16666666666667             1
    0.33333333333333    0.50000000000000   -0.16666666666667             1
    0.50000000000000    0.50000000000000   -0.16666666666667             1
   -0.33333333333333    0.50000000000000   -0.16666666666667             1
   -0.16666666666667    0.50000000000000   -0.16666666666667             1
    0.00000000000000   -0.33333333333333   -0.16666666666667             1
    0.16666666666667   -0.33333333333333   -0.16666666666667             1
    0.33333333333333   -0.33333333333333   -0.16666666666667             1
    0.50000000000000   -0.33333333333333   -0.16666666666667             1
   -0.33333333333333   -0.33333333333333   -0.16666666666667             1
   -0.16666666666667   -0.33333333333333   -0.16666666666667             1
    0.00000000000000   -0.16666666666667   -0.16666666666667             1
    0.16666666666667   -0.16666666666667   -0.16666666666667             1
    0.33333333333333   -0.16666666666667   -0.16666666666667             1
    0.50000000000000   -0.16666666666667   -0.16666666666667             1
   -0.33333333333333   -0.16666666666667   -0.16666666666667             1
   -0.16666666666667   -0.16666666666667   -0.16666666666667             1
0.00000000  0.00000000  0.00000000   0.00
0.01136364  0.01136364  0.01136364   0.00
0.02272727  0.02272727  0.02272727   0.00
0.03409091  0.03409091  0.03409091   0.00
0.04545454  0.04545454  0.04545454   0.00
0.05681818  0.05681818  0.05681818   0.00
0.06818182  0.06818182  0.06818182   0.00
0.07954545  0.07954545  0.07954545   0.00
0.09090909  0.09090909  0.09090909   0.00
0.10227272  0.10227272  0.10227272   0.00
0.11363636  0.11363636  0.11363636   0.00
0.12499999  0.12499999  0.12499999   0.00
0.13636364  0.13636364  0.13636364   0.00
0.14772727  0.14772727  0.14772727   0.00
0.15909091  0.15909091  0.15909091   0.00
0.17045453  0.17045453  0.17045453   0.00
0.18181817  0.18181817  0.18181817   0.00
0.19318181  0.19318181  0.19318181   0.00
0.20454544  0.20454544  0.20454544   0.00
0.21590909  0.21590909  0.21590909   0.00
0.22727272  0.22727272  0.22727272   0.00
0.23863636  0.23863636  0.23863636   0.00
0.24999999  0.24999999  0.24999999   0.00
0.26136363  0.26136363  0.26136363   0.00
0.27272728  0.27272728  0.27272728   0.00
0.28409091  0.28409091  0.28409091   0.00
0.29545453  0.29545453  0.29545453   0.00
0.30681816  0.30681816  0.30681816   0.00
0.31818181  0.31818181  0.31818181   0.00
0.32954544  0.32954544  0.32954544   0.00
0.34090906  0.34090906  0.34090906   0.00
0.35227272  0.35227272  0.35227272   0.00
0.36363634  0.36363634  0.36363634   0.00
0.37500000  0.37500000  0.37500000   0.00
0.38636363  0.38636363  0.38636363   0.00
0.39772725  0.39772725  0.39772725   0.00
0.40909088  0.40909088  0.40909088   0.00
0.42045453  0.42045453  0.42045453   0.00
0.43181819  0.43181819  0.43181819   0.00
0.44318178  0.44318178  0.44318178   0.00
0.45454544  0.45454544  0.45454544   0.00
0.46590906  0.46590906  0.46590906   0.00
0.47727272  0.47727272  0.47727272   0.00
0.48863634  0.48863634  0.48863634   0.00
0.49999997  0.49999997  0.49999997   0.00
0.48571429  0.50000000  0.48571429   0.00
0.47142857  0.50000000  0.47142857   0.00
0.45714286  0.50000000  0.45714286   0.00
0.44285715  0.50000000  0.44285715   0.00
0.42857143  0.50000000  0.42857143   0.00
0.41428572  0.50000000  0.41428572   0.00
0.40000001  0.50000000  0.40000001   0.00
0.38571429  0.50000000  0.38571429   0.00
0.37142855  0.50000000  0.37142855   0.00
0.35714287  0.50000000  0.35714287   0.00
0.34285715  0.50000000  0.34285715   0.00
0.32857144  0.50000000  0.32857144   0.00
0.31428573  0.50000000  0.31428573   0.00
0.30000001  0.50000000  0.30000001   0.00
0.28571430  0.50000000  0.28571430   0.00
0.27142859  0.50000000  0.27142859   0.00
0.25714284  0.50000000  0.25714284   0.00
0.24285713  0.50000000  0.24285713   0.00
0.22857141  0.50000000  0.22857141   0.00
0.21428570  0.50000000  0.21428570   0.00
0.20000002  0.50000000  0.20000002   0.00
0.18571430  0.50000000  0.18571430   0.00
0.17142859  0.50000000  0.17142859   0.00
0.15714285  0.50000000  0.15714285   0.00
0.14285716  0.50000000  0.14285716   0.00
0.12857145  0.50000000  0.12857145   0.00
0.11428574  0.50000000  0.11428574   0.00
0.10000002  0.50000000  0.10000002   0.00
0.08571431  0.50000000  0.08571431   0.00
0.07142860  0.50000000  0.07142860   0.00
0.05714285  0.50000000  0.05714285   0.00
0.04285714  0.50000000  0.04285714   0.00
0.02857143  0.50000000  0.02857143   0.00
0.01428571  0.50000000  0.01428571   0.00
0.00000000  0.50000000  0.00000000   0.00
0.02000000  0.50000000  0.00000000   0.00
0.04000000  0.50000000  0.00000000   0.00
0.06000000  0.50000000  0.00000000   0.00
0.08000000  0.50000000  0.00000000   0.00
0.09999999  0.50000000  0.00000000   0.00
0.12000000  0.50000000  0.00000000   0.00
0.14000000  0.50000000  0.00000000   0.00
0.16000000  0.50000000  0.00000000   0.00
0.17999999  0.50000000  0.00000000   0.00
0.19999999  0.50000000  0.00000000   0.00
0.22000000  0.50000000  0.00000000   0.00
0.23999999  0.50000000  0.00000000   0.00
0.25999999  0.50000000  0.00000000   0.00
0.28000000  0.50000000  0.00000000   0.00
0.29999998  0.50000000  0.00000000   0.00
0.31999999  0.50000000  0.00000000   0.00
0.34000000  0.50000000  0.00000000   0.00
0.35999998  0.50000000  0.00000000   0.00
0.38000000  0.50000000  0.00000000   0.00
0.39999998  0.50000000  0.00000000   0.00
0.41999999  0.50000000  0.00000000   0.00
0.44000000  0.50000000  0.00000000   0.00
0.45999998  0.50000000  0.00000000   0.00
0.47999999  0.50000000  0.00000000   0.00
0.50000000  0.50000000  0.00000000   0.00
0.50000000  0.50000000  0.02000000   0.00
0.50000000  0.50000000  0.04000000   0.00
0.50000000  0.50000000  0.06000000   0.00
0.50000000  0.50000000  0.08000000   0.00
0.50000000  0.50000000  0.09999999   0.00
0.50000000  0.50000000  0.12000000   0.00
0.50000000  0.50000000  0.14000000   0.00
0.50000000  0.50000000  0.16000000   0.00
0.50000000  0.50000000  0.17999999   0.00
0.50000000  0.50000000  0.19999999   0.00
0.50000000  0.50000000  0.22000000   0.00
0.50000000  0.50000000  0.23999999   0.00
0.50000000  0.50000000  0.25999999   0.00
0.50000000  0.50000000  0.28000000   0.00
0.50000000  0.50000000  0.29999998   0.00
0.50000000  0.50000000  0.31999999   0.00
0.50000000  0.50000000  0.34000000   0.00
0.50000000  0.50000000  0.35999998   0.00
0.50000000  0.50000000  0.38000000   0.00
0.50000000  0.50000000  0.39999998   0.00
0.50000000  0.50000000  0.41999999   0.00
0.50000000  0.50000000  0.44000000   0.00
0.50000000  0.50000000  0.45999998   0.00
0.50000000  0.50000000  0.47999999   0.00
0.50000000  0.50000000  0.50000000   0.00
