Automatically generated mesh SCF: 16 steps, Kroute: 239, 4.584*3, GXKGL
      1012
Reciprocal lattice
    0.00000000000000    0.00000000000000    0.00000000000000             1
    0.16666666666667    0.00000000000000    0.00000000000000             8
    0.33333333333333    0.00000000000000    0.00000000000000             8
    0.50000000000000    0.00000000000000    0.00000000000000             4
    0.16666666666667    0.16666666666667    0.00000000000000             6
    0.33333333333333    0.16666666666667    0.00000000000000            24
    0.50000000000000    0.16666666666667    0.00000000000000            24
   -0.33333333333333    0.16666666666667    0.00000000000000            24
   -0.16666666666667    0.16666666666667    0.00000000000000            12
    0.33333333333333    0.33333333333333    0.00000000000000             6
    0.50000000000000    0.33333333333333    0.00000000000000            24
   -0.33333333333333    0.33333333333333    0.00000000000000            12
    0.50000000000000    0.50000000000000    0.00000000000000             3
    0.50000000000000    0.33333333333333    0.16666666666667            24
   -0.33333333333333    0.33333333333333    0.16666666666667            24
   -0.33333333333333    0.50000000000000    0.16666666666667            12
0.00000000  0.00000000  0.00000000   0.00
0.00210084  0.00000000  0.00210084   0.00
0.00420168  0.00000000  0.00420168   0.00
0.00630252  0.00000000  0.00630252   0.00
0.00840336  0.00000000  0.00840336   0.00
0.01050420  0.00000000  0.01050420   0.00
0.01260504  0.00000000  0.01260504   0.00
0.01470588  0.00000000  0.01470588   0.00
0.01680672  0.00000000  0.01680672   0.00
0.01890756  0.00000000  0.01890756   0.00
0.02100840  0.00000000  0.02100840   0.00
0.02310924  0.00000000  0.02310924   0.00
0.02521008  0.00000000  0.02521008   0.00
0.02731092  0.00000000  0.02731092   0.00
0.02941176  0.00000000  0.02941176   0.00
0.03151260  0.00000000  0.03151260   0.00
0.03361344  0.00000000  0.03361344   0.00
0.03571429  0.00000000  0.03571429   0.00
0.03781512  0.00000000  0.03781512   0.00
0.03991597  0.00000000  0.03991597   0.00
0.04201680  0.00000000  0.04201680   0.00
0.04411765  0.00000000  0.04411765   0.00
0.04621849  0.00000000  0.04621849   0.00
0.04831933  0.00000000  0.04831933   0.00
0.05042017  0.00000000  0.05042017   0.00
0.05252101  0.00000000  0.05252101   0.00
0.05462185  0.00000000  0.05462185   0.00
0.05672269  0.00000000  0.05672269   0.00
0.05882353  0.00000000  0.05882353   0.00
0.06092437  0.00000000  0.06092437   0.00
0.06302521  0.00000000  0.06302521   0.00
0.06512605  0.00000000  0.06512605   0.00
0.06722689  0.00000000  0.06722689   0.00
0.06932773  0.00000000  0.06932773   0.00
0.07142857  0.00000000  0.07142857   0.00
0.07352941  0.00000000  0.07352941   0.00
0.07563025  0.00000000  0.07563025   0.00
0.07773110  0.00000000  0.07773110   0.00
0.07983194  0.00000000  0.07983194   0.00
0.08193278  0.00000000  0.08193278   0.00
0.08403361  0.00000000  0.08403361   0.00
0.08613445  0.00000000  0.08613445   0.00
0.08823530  0.00000000  0.08823530   0.00
0.09033614  0.00000000  0.09033614   0.00
0.09243698  0.00000000  0.09243698   0.00
0.09453782  0.00000000  0.09453782   0.00
0.09663866  0.00000000  0.09663866   0.00
0.09873950  0.00000000  0.09873950   0.00
0.10084034  0.00000000  0.10084034   0.00
0.10294117  0.00000000  0.10294117   0.00
0.10504201  0.00000000  0.10504201   0.00
0.10714285  0.00000000  0.10714285   0.00
0.10924370  0.00000000  0.10924370   0.00
0.11134454  0.00000000  0.11134454   0.00
0.11344538  0.00000000  0.11344538   0.00
0.11554622  0.00000000  0.11554622   0.00
0.11764706  0.00000000  0.11764706   0.00
0.11974790  0.00000000  0.11974790   0.00
0.12184874  0.00000000  0.12184874   0.00
0.12394957  0.00000000  0.12394957   0.00
0.12605041  0.00000000  0.12605041   0.00
0.12815125  0.00000000  0.12815125   0.00
0.13025209  0.00000000  0.13025209   0.00
0.13235293  0.00000000  0.13235293   0.00
0.13445377  0.00000000  0.13445377   0.00
0.13655463  0.00000000  0.13655463   0.00
0.13865547  0.00000000  0.13865547   0.00
0.14075631  0.00000000  0.14075631   0.00
0.14285715  0.00000000  0.14285715   0.00
0.14495799  0.00000000  0.14495799   0.00
0.14705881  0.00000000  0.14705881   0.00
0.14915965  0.00000000  0.14915965   0.00
0.15126050  0.00000000  0.15126050   0.00
0.15336134  0.00000000  0.15336134   0.00
0.15546219  0.00000000  0.15546219   0.00
0.15756303  0.00000000  0.15756303   0.00
0.15966387  0.00000000  0.15966387   0.00
0.16176471  0.00000000  0.16176471   0.00
0.16386555  0.00000000  0.16386555   0.00
0.16596639  0.00000000  0.16596639   0.00
0.16806722  0.00000000  0.16806722   0.00
0.17016806  0.00000000  0.17016806   0.00
0.17226890  0.00000000  0.17226890   0.00
0.17436974  0.00000000  0.17436974   0.00
0.17647059  0.00000000  0.17647059   0.00
0.17857143  0.00000000  0.17857143   0.00
0.18067227  0.00000000  0.18067227   0.00
0.18277310  0.00000000  0.18277310   0.00
0.18487395  0.00000000  0.18487395   0.00
0.18697478  0.00000000  0.18697478   0.00
0.18907563  0.00000000  0.18907563   0.00
0.19117646  0.00000000  0.19117646   0.00
0.19327731  0.00000000  0.19327731   0.00
0.19537814  0.00000000  0.19537814   0.00
0.19747899  0.00000000  0.19747899   0.00
0.19957983  0.00000000  0.19957983   0.00
0.20168068  0.00000000  0.20168068   0.00
0.20378152  0.00000000  0.20378152   0.00
0.20588234  0.00000000  0.20588234   0.00
0.20798320  0.00000000  0.20798320   0.00
0.21008402  0.00000000  0.21008402   0.00
0.21218488  0.00000000  0.21218488   0.00
0.21428570  0.00000000  0.21428570   0.00
0.21638656  0.00000000  0.21638656   0.00
0.21848740  0.00000000  0.21848740   0.00
0.22058824  0.00000000  0.22058824   0.00
0.22268908  0.00000000  0.22268908   0.00
0.22478990  0.00000000  0.22478990   0.00
0.22689076  0.00000000  0.22689076   0.00
0.22899158  0.00000000  0.22899158   0.00
0.23109244  0.00000000  0.23109244   0.00
0.23319326  0.00000000  0.23319326   0.00
0.23529412  0.00000000  0.23529412   0.00
0.23739496  0.00000000  0.23739496   0.00
0.23949580  0.00000000  0.23949580   0.00
0.24159664  0.00000000  0.24159664   0.00
0.24369748  0.00000000  0.24369748   0.00
0.24579832  0.00000000  0.24579832   0.00
0.24789914  0.00000000  0.24789914   0.00
0.25000000  0.00000000  0.25000000   0.00
0.25210083  0.00000000  0.25210083   0.00
0.25420168  0.00000000  0.25420168   0.00
0.25630251  0.00000000  0.25630251   0.00
0.25840336  0.00000000  0.25840336   0.00
0.26050419  0.00000000  0.26050419   0.00
0.26260504  0.00000000  0.26260504   0.00
0.26470587  0.00000000  0.26470587   0.00
0.26680672  0.00000000  0.26680672   0.00
0.26890755  0.00000000  0.26890755   0.00
0.27100840  0.00000000  0.27100840   0.00
0.27310926  0.00000000  0.27310926   0.00
0.27521008  0.00000000  0.27521008   0.00
0.27731094  0.00000000  0.27731094   0.00
0.27941176  0.00000000  0.27941176   0.00
0.28151262  0.00000000  0.28151262   0.00
0.28361344  0.00000000  0.28361344   0.00
0.28571430  0.00000000  0.28571430   0.00
0.28781512  0.00000000  0.28781512   0.00
0.28991598  0.00000000  0.28991598   0.00
0.29201680  0.00000000  0.29201680   0.00
0.29411763  0.00000000  0.29411763   0.00
0.29621848  0.00000000  0.29621848   0.00
0.29831931  0.00000000  0.29831931   0.00
0.30042017  0.00000000  0.30042017   0.00
0.30252099  0.00000000  0.30252099   0.00
0.30462185  0.00000000  0.30462185   0.00
0.30672267  0.00000000  0.30672267   0.00
0.30882353  0.00000000  0.30882353   0.00
0.31092438  0.00000000  0.31092438   0.00
0.31302521  0.00000000  0.31302521   0.00
0.31512606  0.00000000  0.31512606   0.00
0.31722689  0.00000000  0.31722689   0.00
0.31932774  0.00000000  0.31932774   0.00
0.32142857  0.00000000  0.32142857   0.00
0.32352942  0.00000000  0.32352942   0.00
0.32563025  0.00000000  0.32563025   0.00
0.32773110  0.00000000  0.32773110   0.00
0.32983193  0.00000000  0.32983193   0.00
0.33193278  0.00000000  0.33193278   0.00
0.33403361  0.00000000  0.33403361   0.00
0.33613443  0.00000000  0.33613443   0.00
0.33823529  0.00000000  0.33823529   0.00
0.34033611  0.00000000  0.34033611   0.00
0.34243697  0.00000000  0.34243697   0.00
0.34453779  0.00000000  0.34453779   0.00
0.34663865  0.00000000  0.34663865   0.00
0.34873948  0.00000000  0.34873948   0.00
0.35084033  0.00000000  0.35084033   0.00
0.35294119  0.00000000  0.35294119   0.00
0.35504201  0.00000000  0.35504201   0.00
0.35714287  0.00000000  0.35714287   0.00
0.35924369  0.00000000  0.35924369   0.00
0.36134455  0.00000000  0.36134455   0.00
0.36344540  0.00000000  0.36344540   0.00
0.36554620  0.00000000  0.36554620   0.00
0.36764705  0.00000000  0.36764705   0.00
0.36974791  0.00000000  0.36974791   0.00
0.37184876  0.00000000  0.37184876   0.00
0.37394956  0.00000000  0.37394956   0.00
0.37605041  0.00000000  0.37605041   0.00
0.37815127  0.00000000  0.37815127   0.00
0.38025212  0.00000000  0.38025212   0.00
0.38235292  0.00000000  0.38235292   0.00
0.38445377  0.00000000  0.38445377   0.00
0.38655463  0.00000000  0.38655463   0.00
0.38865545  0.00000000  0.38865545   0.00
0.39075628  0.00000000  0.39075628   0.00
0.39285713  0.00000000  0.39285713   0.00
0.39495799  0.00000000  0.39495799   0.00
0.39705881  0.00000000  0.39705881   0.00
0.39915967  0.00000000  0.39915967   0.00
0.40126052  0.00000000  0.40126052   0.00
0.40336135  0.00000000  0.40336135   0.00
0.40546218  0.00000000  0.40546218   0.00
0.40756303  0.00000000  0.40756303   0.00
0.40966389  0.00000000  0.40966389   0.00
0.41176468  0.00000000  0.41176468   0.00
0.41386554  0.00000000  0.41386554   0.00
0.41596639  0.00000000  0.41596639   0.00
0.41806725  0.00000000  0.41806725   0.00
0.42016804  0.00000000  0.42016804   0.00
0.42226890  0.00000000  0.42226890   0.00
0.42436975  0.00000000  0.42436975   0.00
0.42647058  0.00000000  0.42647058   0.00
0.42857140  0.00000000  0.42857140   0.00
0.43067226  0.00000000  0.43067226   0.00
0.43277311  0.00000000  0.43277311   0.00
0.43487394  0.00000000  0.43487394   0.00
0.43697479  0.00000000  0.43697479   0.00
0.43907562  0.00000000  0.43907562   0.00
0.44117647  0.00000000  0.44117647   0.00
0.44327730  0.00000000  0.44327730   0.00
0.44537815  0.00000000  0.44537815   0.00
0.44747901  0.00000000  0.44747901   0.00
0.44957981  0.00000000  0.44957981   0.00
0.45168066  0.00000000  0.45168066   0.00
0.45378152  0.00000000  0.45378152   0.00
0.45588237  0.00000000  0.45588237   0.00
0.45798317  0.00000000  0.45798317   0.00
0.46008402  0.00000000  0.46008402   0.00
0.46218488  0.00000000  0.46218488   0.00
0.46428573  0.00000000  0.46428573   0.00
0.46638653  0.00000000  0.46638653   0.00
0.46848738  0.00000000  0.46848738   0.00
0.47058824  0.00000000  0.47058824   0.00
0.47268906  0.00000000  0.47268906   0.00
0.47478992  0.00000000  0.47478992   0.00
0.47689074  0.00000000  0.47689074   0.00
0.47899160  0.00000000  0.47899160   0.00
0.48109242  0.00000000  0.48109242   0.00
0.48319328  0.00000000  0.48319328   0.00
0.48529413  0.00000000  0.48529413   0.00
0.48739496  0.00000000  0.48739496   0.00
0.48949578  0.00000000  0.48949578   0.00
0.49159664  0.00000000  0.49159664   0.00
0.49369749  0.00000000  0.49369749   0.00
0.49579829  0.00000000  0.49579829   0.00
0.49789914  0.00000000  0.49789914   0.00
0.50000000  0.00000000  0.50000000   0.00
0.49920383  0.00238853  0.50159234   0.00
0.49840763  0.00477707  0.50318474   0.00
0.49761146  0.00716560  0.50477707   0.00
0.49681529  0.00955414  0.50636941   0.00
0.49601910  0.01194267  0.50796181   0.00
0.49522293  0.01433121  0.50955415   0.00
0.49442676  0.01671975  0.51114649   0.00
0.49363059  0.01910828  0.51273882   0.00
0.49283439  0.02149681  0.51433122   0.00
0.49203822  0.02388535  0.51592356   0.00
0.49124205  0.02627388  0.51751590   0.00
0.49044585  0.02866242  0.51910830   0.00
0.48964968  0.03105095  0.52070063   0.00
0.48885351  0.03343949  0.52229297   0.00
0.48805732  0.03582802  0.52388537   0.00
0.48726115  0.03821656  0.52547771   0.00
0.48646498  0.04060509  0.52707005   0.00
0.48566878  0.04299363  0.52866244   0.00
0.48487261  0.04538216  0.53025478   0.00
0.48407644  0.04777070  0.53184712   0.00
0.48328024  0.05015923  0.53343952   0.00
0.48248407  0.05254777  0.53503186   0.00
0.48168790  0.05493630  0.53662419   0.00
0.48089173  0.05732484  0.53821653   0.00
0.48009554  0.05971337  0.53980893   0.00
0.47929937  0.06210190  0.54140127   0.00
0.47850320  0.06449044  0.54299361   0.00
0.47770700  0.06687898  0.54458600   0.00
0.47691083  0.06926751  0.54617834   0.00
0.47611466  0.07165605  0.54777068   0.00
0.47531846  0.07404458  0.54936308   0.00
0.47452229  0.07643311  0.55095541   0.00
0.47372612  0.07882165  0.55254775   0.00
0.47292992  0.08121018  0.55414015   0.00
0.47213376  0.08359873  0.55573249   0.00
0.47133759  0.08598725  0.55732483   0.00
0.47054139  0.08837579  0.55891722   0.00
0.46974522  0.09076433  0.56050956   0.00
0.46894905  0.09315286  0.56210190   0.00
0.46815288  0.09554140  0.56369424   0.00
0.46735668  0.09792993  0.56528664   0.00
0.46656051  0.10031846  0.56687897   0.00
0.46576434  0.10270700  0.56847131   0.00
0.46496814  0.10509554  0.57006371   0.00
0.46417198  0.10748407  0.57165605   0.00
0.46337581  0.10987261  0.57324839   0.00
0.46257961  0.11226114  0.57484078   0.00
0.46178344  0.11464968  0.57643312   0.00
0.46098727  0.11703821  0.57802546   0.00
0.46019107  0.11942674  0.57961786   0.00
0.45939490  0.12181528  0.58121020   0.00
0.45859873  0.12420381  0.58280253   0.00
0.45780253  0.12659235  0.58439493   0.00
0.45700637  0.12898089  0.58598727   0.00
0.45621020  0.13136941  0.58757961   0.00
0.45541403  0.13375796  0.58917195   0.00
0.45461783  0.13614649  0.59076434   0.00
0.45382166  0.13853502  0.59235668   0.00
0.45302546  0.14092354  0.59394908   0.00
0.45222929  0.14331210  0.59554142   0.00
0.45143312  0.14570063  0.59713376   0.00
0.45063695  0.14808916  0.59872609   0.00
0.44984075  0.15047771  0.60031849   0.00
0.44904459  0.15286623  0.60191083   0.00
0.44824842  0.15525477  0.60350317   0.00
0.44745225  0.15764330  0.60509551   0.00
0.44665605  0.16003184  0.60668790   0.00
0.44585988  0.16242036  0.60828024   0.00
0.44506371  0.16480891  0.60987258   0.00
0.44426751  0.16719745  0.61146498   0.00
0.44347134  0.16958597  0.61305732   0.00
0.44267517  0.17197451  0.61464965   0.00
0.44187897  0.17436305  0.61624205   0.00
0.44108281  0.17675158  0.61783439   0.00
0.44028664  0.17914011  0.61942673   0.00
0.43949044  0.18152866  0.62101912   0.00
0.43869427  0.18391718  0.62261146   0.00
0.43789810  0.18630572  0.62420380   0.00
0.43710190  0.18869425  0.62579620   0.00
0.43630573  0.19108279  0.62738854   0.00
0.43550956  0.19347133  0.62898088   0.00
0.43471336  0.19585986  0.63057327   0.00
0.43391719  0.19824840  0.63216561   0.00
0.43312103  0.20063692  0.63375795   0.00
0.43232483  0.20302548  0.63535035   0.00
0.43152866  0.20541400  0.63694268   0.00
0.43073249  0.20780253  0.63853502   0.00
0.42993629  0.21019107  0.64012742   0.00
0.42914012  0.21257961  0.64171976   0.00
0.42834395  0.21496814  0.64331210   0.00
0.42754775  0.21735667  0.64490449   0.00
0.42675161  0.21974522  0.64649677   0.00
0.42595541  0.22213374  0.64808917   0.00
0.42515925  0.22452228  0.64968151   0.00
0.42436305  0.22691081  0.65127391   0.00
0.42356688  0.22929935  0.65286624   0.00
0.42277071  0.23168787  0.65445858   0.00
0.42197451  0.23407643  0.65605098   0.00
0.42117834  0.23646495  0.65764332   0.00
0.42038217  0.23885348  0.65923566   0.00
0.41958600  0.24124204  0.66082799   0.00
0.41878980  0.24363056  0.66242039   0.00
0.41799363  0.24601910  0.66401273   0.00
0.41719747  0.24840762  0.66560507   0.00
0.41640127  0.25079617  0.66719747   0.00
0.41560510  0.25318471  0.66878980   0.00
0.41480893  0.25557321  0.67038214   0.00
0.41401273  0.25796178  0.67197454   0.00
0.41321656  0.26035029  0.67356688   0.00
0.41242039  0.26273882  0.67515922   0.00
0.41162419  0.26512739  0.67675161   0.00
0.41082802  0.26751593  0.67834395   0.00
0.41003186  0.26990443  0.67993629   0.00
0.40923566  0.27229297  0.68152869   0.00
0.40843949  0.27468151  0.68312103   0.00
0.40764332  0.27707005  0.68471336   0.00
0.40684712  0.27945858  0.68630576   0.00
0.40605095  0.28184709  0.68789810   0.00
0.40525478  0.28423566  0.68949044   0.00
0.40445858  0.28662419  0.69108284   0.00
0.40366241  0.28901270  0.69267517   0.00
0.40286624  0.29140127  0.69426751   0.00
0.40207008  0.29378980  0.69585985   0.00
0.40127388  0.29617831  0.69745225   0.00
0.40047771  0.29856685  0.69904459   0.00
0.39968154  0.30095541  0.70063692   0.00
0.39888537  0.30334392  0.70222926   0.00
0.39808917  0.30573246  0.70382166   0.00
0.39729300  0.30812103  0.70541400   0.00
0.39649683  0.31050953  0.70700634   0.00
0.39570063  0.31289807  0.70859873   0.00
0.39490446  0.31528661  0.71019107   0.00
0.39410830  0.31767514  0.71178341   0.00
0.39331210  0.32006368  0.71337581   0.00
0.39251593  0.32245222  0.71496814   0.00
0.39171976  0.32484072  0.71656048   0.00
0.39092356  0.32722929  0.71815288   0.00
0.39012739  0.32961783  0.71974522   0.00
0.38933122  0.33200634  0.72133756   0.00
0.38853502  0.33439490  0.72292995   0.00
0.38773885  0.33678344  0.72452229   0.00
0.38694268  0.33917195  0.72611463   0.00
0.38614649  0.34156048  0.72770703   0.00
0.38535032  0.34394902  0.72929937   0.00
0.38455415  0.34633756  0.73089170   0.00
0.38375795  0.34872609  0.73248410   0.00
0.38296178  0.35111460  0.73407644   0.00
0.38216561  0.35350317  0.73566878   0.00
0.38136944  0.35589170  0.73726112   0.00
0.38057324  0.35828021  0.73885351   0.00
0.37977707  0.36066878  0.74044585   0.00
0.37898090  0.36305732  0.74203819   0.00
0.37818471  0.36544582  0.74363059   0.00
0.37738854  0.36783436  0.74522293   0.00
0.37659234  0.37022293  0.74681532   0.00
0.37579620  0.37261143  0.74840760   0.00
0.37500000  0.37499997  0.75000000   0.00
0.37378642  0.37378642  0.74757284   0.00
0.37257281  0.37257281  0.74514562   0.00
0.37135923  0.37135923  0.74271846   0.00
0.37014562  0.37014562  0.74029124   0.00
0.36893204  0.36893204  0.73786408   0.00
0.36771846  0.36771846  0.73543692   0.00
0.36650485  0.36650485  0.73300970   0.00
0.36529127  0.36529127  0.73058254   0.00
0.36407766  0.36407766  0.72815531   0.00
0.36286408  0.36286408  0.72572815   0.00
0.36165050  0.36165050  0.72330099   0.00
0.36043689  0.36043689  0.72087377   0.00
0.35922331  0.35922331  0.71844661   0.00
0.35800970  0.35800970  0.71601939   0.00
0.35679612  0.35679612  0.71359223   0.00
0.35558254  0.35558254  0.71116507   0.00
0.35436893  0.35436893  0.70873785   0.00
0.35315534  0.35315534  0.70631069   0.00
0.35194173  0.35194173  0.70388347   0.00
0.35072815  0.35072815  0.70145631   0.00
0.34951457  0.34951457  0.69902915   0.00
0.34830096  0.34830096  0.69660193   0.00
0.34708738  0.34708738  0.69417477   0.00
0.34587377  0.34587377  0.69174755   0.00
0.34466019  0.34466019  0.68932039   0.00
0.34344661  0.34344661  0.68689322   0.00
0.34223300  0.34223300  0.68446600   0.00
0.34101942  0.34101942  0.68203884   0.00
0.33980584  0.33980584  0.67961168   0.00
0.33859223  0.33859223  0.67718446   0.00
0.33737865  0.33737865  0.67475730   0.00
0.33616504  0.33616504  0.67233008   0.00
0.33495146  0.33495146  0.66990292   0.00
0.33373785  0.33373785  0.66747570   0.00
0.33252427  0.33252427  0.66504854   0.00
0.33131069  0.33131069  0.66262138   0.00
0.33009708  0.33009708  0.66019416   0.00
0.32888350  0.32888350  0.65776700   0.00
0.32766992  0.32766992  0.65533984   0.00
0.32645631  0.32645631  0.65291262   0.00
0.32524273  0.32524273  0.65048546   0.00
0.32402912  0.32402912  0.64805824   0.00
0.32281554  0.32281554  0.64563107   0.00
0.32160193  0.32160193  0.64320385   0.00
0.32038835  0.32038835  0.64077669   0.00
0.31917477  0.31917477  0.63834953   0.00
0.31796116  0.31796116  0.63592231   0.00
0.31674758  0.31674758  0.63349515   0.00
0.31553400  0.31553400  0.63106799   0.00
0.31432039  0.31432039  0.62864077   0.00
0.31310681  0.31310681  0.62621361   0.00
0.31189319  0.31189319  0.62378639   0.00
0.31067961  0.31067961  0.62135923   0.00
0.30946600  0.30946600  0.61893201   0.00
0.30825242  0.30825242  0.61650485   0.00
0.30703884  0.30703884  0.61407769   0.00
0.30582523  0.30582523  0.61165047   0.00
0.30461165  0.30461165  0.60922331   0.00
0.30339807  0.30339807  0.60679615   0.00
0.30218446  0.30218446  0.60436893   0.00
0.30097088  0.30097088  0.60194176   0.00
0.29975727  0.29975727  0.59951454   0.00
0.29854369  0.29854369  0.59708738   0.00
0.29733008  0.29733008  0.59466016   0.00
0.29611650  0.29611650  0.59223300   0.00
0.29490292  0.29490292  0.58980584   0.00
0.29368931  0.29368931  0.58737862   0.00
0.29247573  0.29247573  0.58495146   0.00
0.29126215  0.29126215  0.58252430   0.00
0.29004854  0.29004854  0.58009708   0.00
0.28883496  0.28883496  0.57766992   0.00
0.28762135  0.28762135  0.57524270   0.00
0.28640777  0.28640777  0.57281554   0.00
0.28519416  0.28519416  0.57038832   0.00
0.28398058  0.28398058  0.56796116   0.00
0.28276700  0.28276700  0.56553400   0.00
0.28155339  0.28155339  0.56310678   0.00
0.28033981  0.28033981  0.56067961   0.00
0.27912623  0.27912623  0.55825245   0.00
0.27791262  0.27791262  0.55582523   0.00
0.27669904  0.27669904  0.55339807   0.00
0.27548546  0.27548546  0.55097091   0.00
0.27427185  0.27427185  0.54854369   0.00
0.27305827  0.27305827  0.54611653   0.00
0.27184466  0.27184466  0.54368931   0.00
0.27063107  0.27063107  0.54126215   0.00
0.26941746  0.26941746  0.53883493   0.00
0.26820388  0.26820388  0.53640777   0.00
0.26699030  0.26699030  0.53398061   0.00
0.26577669  0.26577669  0.53155339   0.00
0.26456311  0.26456311  0.52912623   0.00
0.26334953  0.26334953  0.52669907   0.00
0.26213592  0.26213592  0.52427185   0.00
0.26092234  0.26092234  0.52184469   0.00
0.25970873  0.25970873  0.51941746   0.00
0.25849515  0.25849515  0.51699030   0.00
0.25728154  0.25728154  0.51456308   0.00
0.25606796  0.25606796  0.51213592   0.00
0.25485438  0.25485438  0.50970876   0.00
0.25364077  0.25364077  0.50728154   0.00
0.25242719  0.25242719  0.50485438   0.00
0.25121361  0.25121361  0.50242722   0.00
0.25000000  0.25000000  0.50000000   0.00
0.24878640  0.24878640  0.49757281   0.00
0.24757281  0.24757281  0.49514562   0.00
0.24635923  0.24635923  0.49271846   0.00
0.24514563  0.24514563  0.49029127   0.00
0.24393204  0.24393204  0.48786408   0.00
0.24271844  0.24271844  0.48543689   0.00
0.24150485  0.24150485  0.48300970   0.00
0.24029127  0.24029127  0.48058254   0.00
0.23907767  0.23907767  0.47815534   0.00
0.23786408  0.23786408  0.47572815   0.00
0.23665050  0.23665050  0.47330099   0.00
0.23543690  0.23543690  0.47087380   0.00
0.23422331  0.23422331  0.46844661   0.00
0.23300971  0.23300971  0.46601942   0.00
0.23179612  0.23179612  0.46359223   0.00
0.23058254  0.23058254  0.46116507   0.00
0.22936894  0.22936894  0.45873788   0.00
0.22815534  0.22815534  0.45631069   0.00
0.22694175  0.22694175  0.45388350   0.00
0.22572815  0.22572815  0.45145631   0.00
0.22451456  0.22451456  0.44902912   0.00
0.22330098  0.22330098  0.44660196   0.00
0.22208738  0.22208738  0.44417477   0.00
0.22087379  0.22087379  0.44174758   0.00
0.21966019  0.21966019  0.43932039   0.00
0.21844660  0.21844660  0.43689319   0.00
0.21723302  0.21723302  0.43446603   0.00
0.21601942  0.21601942  0.43203884   0.00
0.21480583  0.21480583  0.42961165   0.00
0.21359223  0.21359223  0.42718446   0.00
0.21237864  0.21237864  0.42475727   0.00
0.21116506  0.21116506  0.42233011   0.00
0.20995146  0.20995146  0.41990292   0.00
0.20873787  0.20873787  0.41747573   0.00
0.20752427  0.20752427  0.41504854   0.00
0.20631067  0.20631067  0.41262135   0.00
0.20509709  0.20509709  0.41019419   0.00
0.20388350  0.20388350  0.40776700   0.00
0.20266990  0.20266990  0.40533981   0.00
0.20145631  0.20145631  0.40291262   0.00
0.20024271  0.20024271  0.40048543   0.00
0.19902912  0.19902912  0.39805824   0.00
0.19781554  0.19781554  0.39563107   0.00
0.19660194  0.19660194  0.39320388   0.00
0.19538835  0.19538835  0.39077669   0.00
0.19417475  0.19417475  0.38834950   0.00
0.19296116  0.19296116  0.38592231   0.00
0.19174758  0.19174758  0.38349515   0.00
0.19053398  0.19053398  0.38106796   0.00
0.18932039  0.18932039  0.37864077   0.00
0.18810679  0.18810679  0.37621358   0.00
0.18689319  0.18689319  0.37378639   0.00
0.18567961  0.18567961  0.37135923   0.00
0.18446602  0.18446602  0.36893204   0.00
0.18325242  0.18325242  0.36650485   0.00
0.18203883  0.18203883  0.36407766   0.00
0.18082523  0.18082523  0.36165047   0.00
0.17961167  0.17961167  0.35922334   0.00
0.17839807  0.17839807  0.35679615   0.00
0.17718448  0.17718448  0.35436895   0.00
0.17597088  0.17597088  0.35194176   0.00
0.17475729  0.17475729  0.34951457   0.00
0.17354369  0.17354369  0.34708738   0.00
0.17233011  0.17233011  0.34466022   0.00
0.17111652  0.17111652  0.34223303   0.00
0.16990292  0.16990292  0.33980584   0.00
0.16868933  0.16868933  0.33737865   0.00
0.16747573  0.16747573  0.33495146   0.00
0.16626215  0.16626215  0.33252430   0.00
0.16504855  0.16504855  0.33009711   0.00
0.16383496  0.16383496  0.32766992   0.00
0.16262136  0.16262136  0.32524273   0.00
0.16140777  0.16140777  0.32281554   0.00
0.16019419  0.16019419  0.32038838   0.00
0.15898059  0.15898059  0.31796119   0.00
0.15776700  0.15776700  0.31553400   0.00
0.15655340  0.15655340  0.31310681   0.00
0.15533981  0.15533981  0.31067961   0.00
0.15412621  0.15412621  0.30825242   0.00
0.15291263  0.15291263  0.30582526   0.00
0.15169904  0.15169904  0.30339807   0.00
0.15048544  0.15048544  0.30097088   0.00
0.14927185  0.14927185  0.29854369   0.00
0.14805825  0.14805825  0.29611650   0.00
0.14684467  0.14684467  0.29368934   0.00
0.14563107  0.14563107  0.29126215   0.00
0.14441748  0.14441748  0.28883496   0.00
0.14320388  0.14320388  0.28640777   0.00
0.14199029  0.14199029  0.28398058   0.00
0.14077671  0.14077671  0.28155342   0.00
0.13956311  0.13956311  0.27912623   0.00
0.13834952  0.13834952  0.27669904   0.00
0.13713592  0.13713592  0.27427185   0.00
0.13592233  0.13592233  0.27184466   0.00
0.13470873  0.13470873  0.26941746   0.00
0.13349515  0.13349515  0.26699030   0.00
0.13228156  0.13228156  0.26456311   0.00
0.13106796  0.13106796  0.26213592   0.00
0.12985437  0.12985437  0.25970873   0.00
0.12864077  0.12864077  0.25728154   0.00
0.12742719  0.12742719  0.25485438   0.00
0.12621360  0.12621360  0.25242719   0.00
0.12500000  0.12500000  0.25000000   0.00
0.12378642  0.12378642  0.24757284   0.00
0.12257281  0.12257281  0.24514562   0.00
0.12135923  0.12135923  0.24271846   0.00
0.12014562  0.12014562  0.24029124   0.00
0.11893204  0.11893204  0.23786408   0.00
0.11771846  0.11771846  0.23543692   0.00
0.11650485  0.11650485  0.23300970   0.00
0.11529127  0.11529127  0.23058254   0.00
0.11407766  0.11407766  0.22815531   0.00
0.11286408  0.11286408  0.22572815   0.00
0.11165050  0.11165050  0.22330099   0.00
0.11043689  0.11043689  0.22087377   0.00
0.10922331  0.10922331  0.21844661   0.00
0.10800970  0.10800970  0.21601939   0.00
0.10679612  0.10679612  0.21359223   0.00
0.10558254  0.10558254  0.21116507   0.00
0.10436893  0.10436893  0.20873785   0.00
0.10315534  0.10315534  0.20631069   0.00
0.10194176  0.10194176  0.20388353   0.00
0.10072815  0.10072815  0.20145631   0.00
0.09951457  0.09951457  0.19902915   0.00
0.09830099  0.09830099  0.19660199   0.00
0.09708738  0.09708738  0.19417477   0.00
0.09587380  0.09587380  0.19174761   0.00
0.09466019  0.09466019  0.18932039   0.00
0.09344661  0.09344661  0.18689322   0.00
0.09223303  0.09223303  0.18446606   0.00
0.09101942  0.09101942  0.18203884   0.00
0.08980584  0.08980584  0.17961168   0.00
0.08859223  0.08859223  0.17718446   0.00
0.08737865  0.08737865  0.17475730   0.00
0.08616507  0.08616507  0.17233014   0.00
0.08495146  0.08495146  0.16990292   0.00
0.08373788  0.08373788  0.16747576   0.00
0.08252427  0.08252427  0.16504854   0.00
0.08131069  0.08131069  0.16262138   0.00
0.08009711  0.08009711  0.16019422   0.00
0.07888350  0.07888350  0.15776700   0.00
0.07766992  0.07766992  0.15533984   0.00
0.07645631  0.07645631  0.15291262   0.00
0.07524273  0.07524273  0.15048546   0.00
0.07402912  0.07402912  0.14805824   0.00
0.07281554  0.07281554  0.14563107   0.00
0.07160196  0.07160196  0.14320391   0.00
0.07038835  0.07038835  0.14077669   0.00
0.06917477  0.06917477  0.13834953   0.00
0.06796116  0.06796116  0.13592231   0.00
0.06674758  0.06674758  0.13349515   0.00
0.06553400  0.06553400  0.13106799   0.00
0.06432039  0.06432039  0.12864077   0.00
0.06310681  0.06310681  0.12621361   0.00
0.06189319  0.06189319  0.12378639   0.00
0.06067961  0.06067961  0.12135923   0.00
0.05946603  0.05946603  0.11893207   0.00
0.05825242  0.05825242  0.11650485   0.00
0.05703884  0.05703884  0.11407769   0.00
0.05582523  0.05582523  0.11165047   0.00
0.05461165  0.05461165  0.10922331   0.00
0.05339807  0.05339807  0.10679615   0.00
0.05218446  0.05218446  0.10436893   0.00
0.05097088  0.05097088  0.10194176   0.00
0.04975727  0.04975727  0.09951454   0.00
0.04854369  0.04854369  0.09708738   0.00
0.04733011  0.04733011  0.09466022   0.00
0.04611650  0.04611650  0.09223300   0.00
0.04490292  0.04490292  0.08980584   0.00
0.04368931  0.04368931  0.08737862   0.00
0.04247573  0.04247573  0.08495146   0.00
0.04126215  0.04126215  0.08252430   0.00
0.04004854  0.04004854  0.08009708   0.00
0.03883496  0.03883496  0.07766992   0.00
0.03762135  0.03762135  0.07524270   0.00
0.03640777  0.03640777  0.07281554   0.00
0.03519419  0.03519419  0.07038838   0.00
0.03398058  0.03398058  0.06796116   0.00
0.03276700  0.03276700  0.06553400   0.00
0.03155339  0.03155339  0.06310678   0.00
0.03033981  0.03033981  0.06067961   0.00
0.02912620  0.02912620  0.05825239   0.00
0.02791262  0.02791262  0.05582523   0.00
0.02669904  0.02669904  0.05339807   0.00