Automatically generated mesh SCF: 112, kroute: 174, 6.29,6.27,6.30 GRXMR
     628
Reciprocal lattice
    0.00000000000000    0.00000000000000    0.00000000000000             1
    0.16666666666667    0.00000000000000    0.00000000000000             2
    0.33333333333333    0.00000000000000    0.00000000000000             2
    0.50000000000000    0.00000000000000    0.00000000000000             1
    0.00000000000000    0.16666666666667    0.00000000000000             2
    0.16666666666667    0.16666666666667    0.00000000000000             2
    0.33333333333333    0.16666666666667    0.00000000000000             2
    0.50000000000000    0.16666666666667    0.00000000000000             2
   -0.33333333333333    0.16666666666667   -0.00000000000000             2
   -0.16666666666667    0.16666666666667   -0.00000000000000             2
    0.00000000000000    0.33333333333333    0.00000000000000             2
    0.16666666666667    0.33333333333333    0.00000000000000             2
    0.33333333333333    0.33333333333333    0.00000000000000             2
    0.50000000000000    0.33333333333333    0.00000000000000             2
   -0.33333333333333    0.33333333333333    0.00000000000000             2
   -0.16666666666667    0.33333333333333   -0.00000000000000             2
    0.00000000000000    0.50000000000000    0.00000000000000             1
    0.16666666666667    0.50000000000000    0.00000000000000             2
    0.33333333333333    0.50000000000000    0.00000000000000             2
    0.50000000000000    0.50000000000000    0.00000000000000             1
    0.00000000000000    0.00000000000000    0.16666666666667             2
    0.16666666666667    0.00000000000000    0.16666666666667             2
    0.33333333333333    0.00000000000000    0.16666666666667             2
    0.50000000000000    0.00000000000000    0.16666666666667             2
   -0.33333333333333   -0.00000000000000    0.16666666666667             2
   -0.16666666666667   -0.00000000000000    0.16666666666667             2
    0.00000000000000    0.16666666666667    0.16666666666667             2
    0.16666666666667    0.16666666666667    0.16666666666667             2
    0.33333333333333    0.16666666666667    0.16666666666667             2
    0.50000000000000    0.16666666666667    0.16666666666667             2
   -0.33333333333333    0.16666666666667    0.16666666666667             2
   -0.16666666666667    0.16666666666667    0.16666666666667             2
    0.00000000000000    0.33333333333333    0.16666666666667             2
    0.16666666666667    0.33333333333333    0.16666666666667             2
    0.33333333333333    0.33333333333333    0.16666666666667             2
    0.50000000000000    0.33333333333333    0.16666666666667             2
   -0.33333333333333    0.33333333333333    0.16666666666667             2
   -0.16666666666667    0.33333333333333    0.16666666666667             2
    0.00000000000000    0.50000000000000    0.16666666666667             2
    0.16666666666667    0.50000000000000    0.16666666666667             2
    0.33333333333333    0.50000000000000    0.16666666666667             2
    0.50000000000000    0.50000000000000    0.16666666666667             2
   -0.33333333333333    0.50000000000000    0.16666666666667             2
   -0.16666666666667    0.50000000000000    0.16666666666667             2
    0.00000000000000   -0.33333333333333    0.16666666666667             2
    0.16666666666667   -0.33333333333333    0.16666666666667             2
    0.33333333333333   -0.33333333333333    0.16666666666667             2
    0.50000000000000   -0.33333333333333    0.16666666666667             2
   -0.33333333333333   -0.33333333333333    0.16666666666667             2
   -0.16666666666667   -0.33333333333333    0.16666666666667             2
    0.00000000000000   -0.16666666666667    0.16666666666667             2
    0.16666666666667   -0.16666666666667    0.16666666666667             2
    0.33333333333333   -0.16666666666667    0.16666666666667             2
    0.50000000000000   -0.16666666666667    0.16666666666667             2
   -0.33333333333333   -0.16666666666667    0.16666666666667             2
   -0.16666666666667   -0.16666666666667    0.16666666666667             2
    0.00000000000000    0.00000000000000    0.33333333333333             2
    0.16666666666667    0.00000000000000    0.33333333333333             2
    0.33333333333333    0.00000000000000    0.33333333333333             2
    0.50000000000000    0.00000000000000    0.33333333333333             2
   -0.33333333333333   -0.00000000000000    0.33333333333333             2
   -0.16666666666667   -0.00000000000000    0.33333333333333             2
    0.00000000000000    0.16666666666667    0.33333333333333             2
    0.16666666666667    0.16666666666667    0.33333333333333             2
    0.33333333333333    0.16666666666667    0.33333333333333             2
    0.50000000000000    0.16666666666667    0.33333333333333             2
   -0.33333333333333    0.16666666666667    0.33333333333333             2
   -0.16666666666667    0.16666666666667    0.33333333333333             2
    0.00000000000000    0.33333333333333    0.33333333333333             2
    0.16666666666667    0.33333333333333    0.33333333333333             2
    0.33333333333333    0.33333333333333    0.33333333333333             2
    0.50000000000000    0.33333333333333    0.33333333333333             2
   -0.33333333333333    0.33333333333333    0.33333333333333             2
   -0.16666666666667    0.33333333333333    0.33333333333333             2
    0.00000000000000    0.50000000000000    0.33333333333333             2
    0.16666666666667    0.50000000000000    0.33333333333333             2
    0.33333333333333    0.50000000000000    0.33333333333333             2
    0.50000000000000    0.50000000000000    0.33333333333333             2
   -0.33333333333333    0.50000000000000    0.33333333333333             2
   -0.16666666666667    0.50000000000000    0.33333333333333             2
    0.00000000000000   -0.33333333333333    0.33333333333333             2
    0.16666666666667   -0.33333333333333    0.33333333333333             2
    0.33333333333333   -0.33333333333333    0.33333333333333             2
    0.50000000000000   -0.33333333333333    0.33333333333333             2
   -0.33333333333333   -0.33333333333333    0.33333333333333             2
   -0.16666666666667   -0.33333333333333    0.33333333333333             2
    0.00000000000000   -0.16666666666667    0.33333333333333             2
    0.16666666666667   -0.16666666666667    0.33333333333333             2
    0.33333333333333   -0.16666666666667    0.33333333333333             2
    0.50000000000000   -0.16666666666667    0.33333333333333             2
   -0.33333333333333   -0.16666666666667    0.33333333333333             2
   -0.16666666666667   -0.16666666666667    0.33333333333333             2
    0.00000000000000    0.00000000000000    0.50000000000000             1
    0.16666666666667    0.00000000000000    0.50000000000000             2
    0.33333333333333    0.00000000000000    0.50000000000000             2
    0.50000000000000    0.00000000000000    0.50000000000000             1
    0.00000000000000    0.16666666666667    0.50000000000000             2
    0.16666666666667    0.16666666666667    0.50000000000000             2
    0.33333333333333    0.16666666666667    0.50000000000000             2
    0.50000000000000    0.16666666666667    0.50000000000000             2
   -0.33333333333333    0.16666666666667    0.50000000000000             2
   -0.16666666666667    0.16666666666667    0.50000000000000             2
    0.00000000000000    0.33333333333333    0.50000000000000             2
    0.16666666666667    0.33333333333333    0.50000000000000             2
    0.33333333333333    0.33333333333333    0.50000000000000             2
    0.50000000000000    0.33333333333333    0.50000000000000             2
   -0.33333333333333    0.33333333333333    0.50000000000000             2
   -0.16666666666667    0.33333333333333    0.50000000000000             2
    0.00000000000000    0.50000000000000    0.50000000000000             1
    0.16666666666667    0.50000000000000    0.50000000000000             2
    0.33333333333333    0.50000000000000    0.50000000000000             2
    0.50000000000000    0.50000000000000    0.50000000000000             1
0.00000000  0.00000000  0.00000000   0.00
0.00287356  0.00287356  0.00287356   0.00
0.00574713  0.00574713  0.00574713   0.00
0.00862069  0.00862069  0.00862069   0.00
0.01149425  0.01149425  0.01149425   0.00
0.01436782  0.01436782  0.01436782   0.00
0.01724138  0.01724138  0.01724138   0.00
0.02011494  0.02011494  0.02011494   0.00
0.02298851  0.02298851  0.02298851   0.00
0.02586207  0.02586207  0.02586207   0.00
0.02873563  0.02873563  0.02873563   0.00
0.03160919  0.03160919  0.03160919   0.00
0.03448276  0.03448276  0.03448276   0.00
0.03735632  0.03735632  0.03735632   0.00
0.04022988  0.04022988  0.04022988   0.00
0.04310345  0.04310345  0.04310345   0.00
0.04597701  0.04597701  0.04597701   0.00
0.04885057  0.04885057  0.04885057   0.00
0.05172414  0.05172414  0.05172414   0.00
0.05459770  0.05459770  0.05459770   0.00
0.05747126  0.05747126  0.05747126   0.00
0.06034483  0.06034483  0.06034483   0.00
0.06321838  0.06321838  0.06321838   0.00
0.06609195  0.06609195  0.06609195   0.00
0.06896552  0.06896552  0.06896552   0.00
0.07183908  0.07183908  0.07183908   0.00
0.07471264  0.07471264  0.07471264   0.00
0.07758620  0.07758620  0.07758620   0.00
0.08045977  0.08045977  0.08045977   0.00
0.08333334  0.08333334  0.08333334   0.00
0.08620689  0.08620689  0.08620689   0.00
0.08908046  0.08908046  0.08908046   0.00
0.09195402  0.09195402  0.09195402   0.00
0.09482758  0.09482758  0.09482758   0.00
0.09770115  0.09770115  0.09770115   0.00
0.10057471  0.10057471  0.10057471   0.00
0.10344828  0.10344828  0.10344828   0.00
0.10632184  0.10632184  0.10632184   0.00
0.10919540  0.10919540  0.10919540   0.00
0.11206897  0.11206897  0.11206897   0.00
0.11494253  0.11494253  0.11494253   0.00
0.11781609  0.11781609  0.11781609   0.00
0.12068965  0.12068965  0.12068965   0.00
0.12356322  0.12356322  0.12356322   0.00
0.12643677  0.12643677  0.12643677   0.00
0.12931034  0.12931034  0.12931034   0.00
0.13218391  0.13218391  0.13218391   0.00
0.13505748  0.13505748  0.13505748   0.00
0.13793103  0.13793103  0.13793103   0.00
0.14080459  0.14080459  0.14080459   0.00
0.14367816  0.14367816  0.14367816   0.00
0.14655173  0.14655173  0.14655173   0.00
0.14942528  0.14942528  0.14942528   0.00
0.15229884  0.15229884  0.15229884   0.00
0.15517241  0.15517241  0.15517241   0.00
0.15804598  0.15804598  0.15804598   0.00
0.16091953  0.16091953  0.16091953   0.00
0.16379310  0.16379310  0.16379310   0.00
0.16666667  0.16666667  0.16666667   0.00
0.16954024  0.16954024  0.16954024   0.00
0.17241378  0.17241378  0.17241378   0.00
0.17528735  0.17528735  0.17528735   0.00
0.17816092  0.17816092  0.17816092   0.00
0.18103448  0.18103448  0.18103448   0.00
0.18390805  0.18390805  0.18390805   0.00
0.18678162  0.18678162  0.18678162   0.00
0.18965517  0.18965517  0.18965517   0.00
0.19252872  0.19252872  0.19252872   0.00
0.19540229  0.19540229  0.19540229   0.00
0.19827585  0.19827585  0.19827585   0.00
0.20114942  0.20114942  0.20114942   0.00
0.20402299  0.20402299  0.20402299   0.00
0.20689656  0.20689656  0.20689656   0.00
0.20977011  0.20977011  0.20977011   0.00
0.21264368  0.21264368  0.21264368   0.00
0.21551725  0.21551725  0.21551725   0.00
0.21839079  0.21839079  0.21839079   0.00
0.22126436  0.22126436  0.22126436   0.00
0.22413793  0.22413793  0.22413793   0.00
0.22701149  0.22701149  0.22701149   0.00
0.22988506  0.22988506  0.22988506   0.00
0.23275863  0.23275863  0.23275863   0.00
0.23563218  0.23563218  0.23563218   0.00
0.23850574  0.23850574  0.23850574   0.00
0.24137931  0.24137931  0.24137931   0.00
0.24425286  0.24425286  0.24425286   0.00
0.24712643  0.24712643  0.24712643   0.00
0.25000000  0.25000000  0.25000000   0.00
0.25287354  0.25287354  0.25287354   0.00
0.25574711  0.25574711  0.25574711   0.00
0.25862068  0.25862068  0.25862068   0.00
0.26149425  0.26149425  0.26149425   0.00
0.26436782  0.26436782  0.26436782   0.00
0.26724139  0.26724139  0.26724139   0.00
0.27011496  0.27011496  0.27011496   0.00
0.27298850  0.27298850  0.27298850   0.00
0.27586207  0.27586207  0.27586207   0.00
0.27873564  0.27873564  0.27873564   0.00
0.28160918  0.28160918  0.28160918   0.00
0.28448275  0.28448275  0.28448275   0.00
0.28735632  0.28735632  0.28735632   0.00
0.29022989  0.29022989  0.29022989   0.00
0.29310346  0.29310346  0.29310346   0.00
0.29597700  0.29597700  0.29597700   0.00
0.29885057  0.29885057  0.29885057   0.00
0.30172414  0.30172414  0.30172414   0.00
0.30459768  0.30459768  0.30459768   0.00
0.30747125  0.30747125  0.30747125   0.00
0.31034482  0.31034482  0.31034482   0.00
0.31321838  0.31321838  0.31321838   0.00
0.31609195  0.31609195  0.31609195   0.00
0.31896552  0.31896552  0.31896552   0.00
0.32183906  0.32183906  0.32183906   0.00
0.32471263  0.32471263  0.32471263   0.00
0.32758620  0.32758620  0.32758620   0.00
0.33045977  0.33045977  0.33045977   0.00
0.33333334  0.33333334  0.33333334   0.00
0.33620691  0.33620691  0.33620691   0.00
0.33908048  0.33908048  0.33908048   0.00
0.34195399  0.34195399  0.34195399   0.00
0.34482756  0.34482756  0.34482756   0.00
0.34770113  0.34770113  0.34770113   0.00
0.35057470  0.35057470  0.35057470   0.00
0.35344827  0.35344827  0.35344827   0.00
0.35632184  0.35632184  0.35632184   0.00
0.35919538  0.35919538  0.35919538   0.00
0.36206895  0.36206895  0.36206895   0.00
0.36494252  0.36494252  0.36494252   0.00
0.36781609  0.36781609  0.36781609   0.00
0.37068966  0.37068966  0.37068966   0.00
0.37356323  0.37356323  0.37356323   0.00
0.37643680  0.37643680  0.37643680   0.00
0.37931034  0.37931034  0.37931034   0.00
0.38218391  0.38218391  0.38218391   0.00
0.38505745  0.38505745  0.38505745   0.00
0.38793102  0.38793102  0.38793102   0.00
0.39080459  0.39080459  0.39080459   0.00
0.39367816  0.39367816  0.39367816   0.00
0.39655170  0.39655170  0.39655170   0.00
0.39942527  0.39942527  0.39942527   0.00
0.40229884  0.40229884  0.40229884   0.00
0.40517241  0.40517241  0.40517241   0.00
0.40804598  0.40804598  0.40804598   0.00
0.41091955  0.41091955  0.41091955   0.00
0.41379312  0.41379312  0.41379312   0.00
0.41666666  0.41666666  0.41666666   0.00
0.41954023  0.41954023  0.41954023   0.00
0.42241380  0.42241380  0.42241380   0.00
0.42528737  0.42528737  0.42528737   0.00
0.42816094  0.42816094  0.42816094   0.00
0.43103451  0.43103451  0.43103451   0.00
0.43390802  0.43390802  0.43390802   0.00
0.43678159  0.43678159  0.43678159   0.00
0.43965515  0.43965515  0.43965515   0.00
0.44252872  0.44252872  0.44252872   0.00
0.44540229  0.44540229  0.44540229   0.00
0.44827586  0.44827586  0.44827586   0.00
0.45114940  0.45114940  0.45114940   0.00
0.45402297  0.45402297  0.45402297   0.00
0.45689654  0.45689654  0.45689654   0.00
0.45977011  0.45977011  0.45977011   0.00
0.46264368  0.46264368  0.46264368   0.00
0.46551725  0.46551725  0.46551725   0.00
0.46839082  0.46839082  0.46839082   0.00
0.47126436  0.47126436  0.47126436   0.00
0.47413793  0.47413793  0.47413793   0.00
0.47701147  0.47701147  0.47701147   0.00
0.47988504  0.47988504  0.47988504   0.00
0.48275861  0.48275861  0.48275861   0.00
0.48563218  0.48563218  0.48563218   0.00
0.48850572  0.48850572  0.48850572   0.00
0.49137929  0.49137929  0.49137929   0.00
0.49425286  0.49425286  0.49425286   0.00
0.49712643  0.49712643  0.49712643   0.00
0.50000000  0.50000000  0.50000000   0.00
0.49645391  0.50000000  0.49645391   0.00
0.49290779  0.50000000  0.49290779   0.00
0.48936170  0.50000000  0.48936170   0.00
0.48581561  0.50000000  0.48581561   0.00
0.48226950  0.50000000  0.48226950   0.00
0.47872341  0.50000000  0.47872341   0.00
0.47517732  0.50000000  0.47517732   0.00
0.47163120  0.50000000  0.47163120   0.00
0.46808511  0.50000000  0.46808511   0.00
0.46453899  0.50000000  0.46453899   0.00
0.46099290  0.50000000  0.46099290   0.00
0.45744681  0.50000000  0.45744681   0.00
0.45390069  0.50000000  0.45390069   0.00
0.45035461  0.50000000  0.45035461   0.00
0.44680852  0.50000000  0.44680852   0.00
0.44326240  0.50000000  0.44326240   0.00
0.43971631  0.50000000  0.43971631   0.00
0.43617022  0.50000000  0.43617022   0.00
0.43262410  0.50000000  0.43262410   0.00
0.42907801  0.50000000  0.42907801   0.00
0.42553192  0.50000000  0.42553192   0.00
0.42198581  0.50000000  0.42198581   0.00
0.41843972  0.50000000  0.41843972   0.00
0.41489363  0.50000000  0.41489363   0.00
0.41134751  0.50000000  0.41134751   0.00
0.40780142  0.50000000  0.40780142   0.00
0.40425533  0.50000000  0.40425533   0.00
0.40070921  0.50000000  0.40070921   0.00
0.39716312  0.50000000  0.39716312   0.00
0.39361703  0.50000000  0.39361703   0.00
0.39007092  0.50000000  0.39007092   0.00
0.38652483  0.50000000  0.38652483   0.00
0.38297874  0.50000000  0.38297874   0.00
0.37943262  0.50000000  0.37943262   0.00
0.37588653  0.50000000  0.37588653   0.00
0.37234044  0.50000000  0.37234044   0.00
0.36879432  0.50000000  0.36879432   0.00
0.36524823  0.50000000  0.36524823   0.00
0.36170214  0.50000000  0.36170214   0.00
0.35815603  0.50000000  0.35815603   0.00
0.35460994  0.50000000  0.35460994   0.00
0.35106385  0.50000000  0.35106385   0.00
0.34751773  0.50000000  0.34751773   0.00
0.34397164  0.50000000  0.34397164   0.00
0.34042555  0.50000000  0.34042555   0.00
0.33687943  0.50000000  0.33687943   0.00
0.33333334  0.50000000  0.33333334   0.00
0.32978722  0.50000000  0.32978722   0.00
0.32624114  0.50000000  0.32624114   0.00
0.32269502  0.50000000  0.32269502   0.00
0.31914896  0.50000000  0.31914896   0.00
0.31560284  0.50000000  0.31560284   0.00
0.31205675  0.50000000  0.31205675   0.00
0.30851063  0.50000000  0.30851063   0.00
0.30496454  0.50000000  0.30496454   0.00
0.30141842  0.50000000  0.30141842   0.00
0.29787236  0.50000000  0.29787236   0.00
0.29432625  0.50000000  0.29432625   0.00
0.29078016  0.50000000  0.29078016   0.00
0.28723404  0.50000000  0.28723404   0.00
0.28368795  0.50000000  0.28368795   0.00
0.28014183  0.50000000  0.28014183   0.00
0.27659577  0.50000000  0.27659577   0.00
0.27304965  0.50000000  0.27304965   0.00
0.26950353  0.50000000  0.26950353   0.00
0.26595744  0.50000000  0.26595744   0.00
0.26241136  0.50000000  0.26241136   0.00
0.25886524  0.50000000  0.25886524   0.00
0.25531915  0.50000000  0.25531915   0.00
0.25177306  0.50000000  0.25177306   0.00
0.24822694  0.50000000  0.24822694   0.00
0.24468085  0.50000000  0.24468085   0.00
0.24113473  0.50000000  0.24113473   0.00
0.23758867  0.50000000  0.23758867   0.00
0.23404256  0.50000000  0.23404256   0.00
0.23049647  0.50000000  0.23049647   0.00
0.22695035  0.50000000  0.22695035   0.00
0.22340426  0.50000000  0.22340426   0.00
0.21985814  0.50000000  0.21985814   0.00
0.21631205  0.50000000  0.21631205   0.00
0.21276596  0.50000000  0.21276596   0.00
0.20921987  0.50000000  0.20921987   0.00
0.20567375  0.50000000  0.20567375   0.00
0.20212767  0.50000000  0.20212767   0.00
0.19858155  0.50000000  0.19858155   0.00
0.19503546  0.50000000  0.19503546   0.00
0.19148937  0.50000000  0.19148937   0.00
0.18794328  0.50000000  0.18794328   0.00
0.18439716  0.50000000  0.18439716   0.00
0.18085107  0.50000000  0.18085107   0.00
0.17730495  0.50000000  0.17730495   0.00
0.17375886  0.50000000  0.17375886   0.00
0.17021278  0.50000000  0.17021278   0.00
0.16666669  0.50000000  0.16666669   0.00
0.16312057  0.50000000  0.16312057   0.00
0.15957445  0.50000000  0.15957445   0.00
0.15602836  0.50000000  0.15602836   0.00
0.15248227  0.50000000  0.15248227   0.00
0.14893618  0.50000000  0.14893618   0.00
0.14539006  0.50000000  0.14539006   0.00
0.14184394  0.50000000  0.14184394   0.00
0.13829789  0.50000000  0.13829789   0.00
0.13475177  0.50000000  0.13475177   0.00
0.13120568  0.50000000  0.13120568   0.00
0.12765956  0.50000000  0.12765956   0.00
0.12411350  0.50000000  0.12411350   0.00
0.12056738  0.50000000  0.12056738   0.00
0.11702126  0.50000000  0.11702126   0.00
0.11347517  0.50000000  0.11347517   0.00
0.10992908  0.50000000  0.10992908   0.00
0.10638300  0.50000000  0.10638300   0.00
0.10283688  0.50000000  0.10283688   0.00
0.09929076  0.50000000  0.09929076   0.00
0.09574470  0.50000000  0.09574470   0.00
0.09219858  0.50000000  0.09219858   0.00
0.08865249  0.50000000  0.08865249   0.00
0.08510637  0.50000000  0.08510637   0.00
0.08156031  0.50000000  0.08156031   0.00
0.07801419  0.50000000  0.07801419   0.00
0.07446808  0.50000000  0.07446808   0.00
0.07092199  0.50000000  0.07092199   0.00
0.06737590  0.50000000  0.06737590   0.00
0.06382981  0.50000000  0.06382981   0.00
0.06028369  0.50000000  0.06028369   0.00
0.05673757  0.50000000  0.05673757   0.00
0.05319151  0.50000000  0.05319151   0.00
0.04964539  0.50000000  0.04964539   0.00
0.04609931  0.50000000  0.04609931   0.00
0.04255319  0.50000000  0.04255319   0.00
0.03900707  0.50000000  0.03900707   0.00
0.03546101  0.50000000  0.03546101   0.00
0.03191489  0.50000000  0.03191489   0.00
0.02836880  0.50000000  0.02836880   0.00
0.02482268  0.50000000  0.02482268   0.00
0.02127662  0.50000000  0.02127662   0.00
0.01773050  0.50000000  0.01773050   0.00
0.01418439  0.50000000  0.01418439   0.00
0.01063830  0.50000000  0.01063830   0.00
0.00709221  0.50000000  0.00709221   0.00
0.00354612  0.50000000  0.00354612   0.00
0.00000000  0.50000000  0.00000000   0.00
0.00500000  0.50000000  0.00000000   0.00
0.01000000  0.50000000  0.00000000   0.00
0.01500000  0.50000000  0.00000000   0.00
0.02000000  0.50000000  0.00000000   0.00
0.02500000  0.50000000  0.00000000   0.00
0.03000000  0.50000000  0.00000000   0.00
0.03500000  0.50000000  0.00000000   0.00
0.04000000  0.50000000  0.00000000   0.00
0.04500000  0.50000000  0.00000000   0.00
0.05000000  0.50000000  0.00000000   0.00
0.05500000  0.50000000  0.00000000   0.00
0.06000000  0.50000000  0.00000000   0.00
0.06500000  0.50000000  0.00000000   0.00
0.07000000  0.50000000  0.00000000   0.00
0.07500000  0.50000000  0.00000000   0.00
0.08000000  0.50000000  0.00000000   0.00
0.08500000  0.50000000  0.00000000   0.00
0.09000000  0.50000000  0.00000000   0.00
0.09500000  0.50000000  0.00000000   0.00
0.09999999  0.50000000  0.00000000   0.00
0.10500000  0.50000000  0.00000000   0.00
0.11000000  0.50000000  0.00000000   0.00
0.11499999  0.50000000  0.00000000   0.00
0.12000000  0.50000000  0.00000000   0.00
0.12500000  0.50000000  0.00000000   0.00
0.13000000  0.50000000  0.00000000   0.00
0.13499999  0.50000000  0.00000000   0.00
0.14000000  0.50000000  0.00000000   0.00
0.14500000  0.50000000  0.00000000   0.00
0.14999999  0.50000000  0.00000000   0.00
0.15500000  0.50000000  0.00000000   0.00
0.16000000  0.50000000  0.00000000   0.00
0.16499999  0.50000000  0.00000000   0.00
0.17000000  0.50000000  0.00000000   0.00
0.17500000  0.50000000  0.00000000   0.00
0.17999999  0.50000000  0.00000000   0.00
0.18500000  0.50000000  0.00000000   0.00
0.19000000  0.50000000  0.00000000   0.00
0.19499999  0.50000000  0.00000000   0.00
0.19999999  0.50000000  0.00000000   0.00
0.20500000  0.50000000  0.00000000   0.00
0.20999999  0.50000000  0.00000000   0.00
0.21499999  0.50000000  0.00000000   0.00
0.22000000  0.50000000  0.00000000   0.00
0.22499999  0.50000000  0.00000000   0.00
0.22999999  0.50000000  0.00000000   0.00
0.23500000  0.50000000  0.00000000   0.00
0.23999999  0.50000000  0.00000000   0.00
0.24499999  0.50000000  0.00000000   0.00
0.25000000  0.50000000  0.00000000   0.00
0.25500000  0.50000000  0.00000000   0.00
0.25999999  0.50000000  0.00000000   0.00
0.26499999  0.50000000  0.00000000   0.00
0.26999998  0.50000000  0.00000000   0.00
0.27500001  0.50000000  0.00000000   0.00
0.28000000  0.50000000  0.00000000   0.00
0.28500000  0.50000000  0.00000000   0.00
0.28999999  0.50000000  0.00000000   0.00
0.29499999  0.50000000  0.00000000   0.00
0.29999998  0.50000000  0.00000000   0.00
0.30500001  0.50000000  0.00000000   0.00
0.31000000  0.50000000  0.00000000   0.00
0.31500000  0.50000000  0.00000000   0.00
0.31999999  0.50000000  0.00000000   0.00
0.32499999  0.50000000  0.00000000   0.00
0.32999998  0.50000000  0.00000000   0.00
0.33499998  0.50000000  0.00000000   0.00
0.34000000  0.50000000  0.00000000   0.00
0.34500000  0.50000000  0.00000000   0.00
0.34999999  0.50000000  0.00000000   0.00
0.35499999  0.50000000  0.00000000   0.00
0.35999998  0.50000000  0.00000000   0.00
0.36499998  0.50000000  0.00000000   0.00
0.37000000  0.50000000  0.00000000   0.00
0.37500000  0.50000000  0.00000000   0.00
0.38000000  0.50000000  0.00000000   0.00
0.38499999  0.50000000  0.00000000   0.00
0.38999999  0.50000000  0.00000000   0.00
0.39499998  0.50000000  0.00000000   0.00
0.39999998  0.50000000  0.00000000   0.00
0.40500000  0.50000000  0.00000000   0.00
0.41000000  0.50000000  0.00000000   0.00
0.41499999  0.50000000  0.00000000   0.00
0.41999999  0.50000000  0.00000000   0.00
0.42499998  0.50000000  0.00000000   0.00
0.42999998  0.50000000  0.00000000   0.00
0.43500000  0.50000000  0.00000000   0.00
0.44000000  0.50000000  0.00000000   0.00
0.44499999  0.50000000  0.00000000   0.00
0.44999999  0.50000000  0.00000000   0.00
0.45499998  0.50000000  0.00000000   0.00
0.45999998  0.50000000  0.00000000   0.00
0.46500000  0.50000000  0.00000000   0.00
0.47000000  0.50000000  0.00000000   0.00
0.47499999  0.50000000  0.00000000   0.00
0.47999999  0.50000000  0.00000000   0.00
0.48499998  0.50000000  0.00000000   0.00
0.48999998  0.50000000  0.00000000   0.00
0.49499997  0.50000000  0.00000000   0.00
0.50000000  0.50000000  0.00000000   0.00
0.50000000  0.50000000  0.00500000   0.00
0.50000000  0.50000000  0.01000000   0.00
0.50000000  0.50000000  0.01500000   0.00
0.50000000  0.50000000  0.02000000   0.00
0.50000000  0.50000000  0.02500000   0.00
0.50000000  0.50000000  0.03000000   0.00
0.50000000  0.50000000  0.03500000   0.00
0.50000000  0.50000000  0.04000000   0.00
0.50000000  0.50000000  0.04500000   0.00
0.50000000  0.50000000  0.05000000   0.00
0.50000000  0.50000000  0.05500000   0.00
0.50000000  0.50000000  0.06000000   0.00
0.50000000  0.50000000  0.06500000   0.00
0.50000000  0.50000000  0.07000000   0.00
0.50000000  0.50000000  0.07500000   0.00
0.50000000  0.50000000  0.08000000   0.00
0.50000000  0.50000000  0.08500000   0.00
0.50000000  0.50000000  0.09000000   0.00
0.50000000  0.50000000  0.09500000   0.00
0.50000000  0.50000000  0.09999999   0.00
0.50000000  0.50000000  0.10500000   0.00
0.50000000  0.50000000  0.11000000   0.00
0.50000000  0.50000000  0.11499999   0.00
0.50000000  0.50000000  0.12000000   0.00
0.50000000  0.50000000  0.12500000   0.00
0.50000000  0.50000000  0.13000000   0.00
0.50000000  0.50000000  0.13499999   0.00
0.50000000  0.50000000  0.14000000   0.00
0.50000000  0.50000000  0.14500000   0.00
0.50000000  0.50000000  0.14999999   0.00
0.50000000  0.50000000  0.15500000   0.00
0.50000000  0.50000000  0.16000000   0.00
0.50000000  0.50000000  0.16499999   0.00
0.50000000  0.50000000  0.17000000   0.00
0.50000000  0.50000000  0.17500000   0.00
0.50000000  0.50000000  0.17999999   0.00
0.50000000  0.50000000  0.18500000   0.00
0.50000000  0.50000000  0.19000000   0.00
0.50000000  0.50000000  0.19499999   0.00
0.50000000  0.50000000  0.19999999   0.00
0.50000000  0.50000000  0.20500000   0.00
0.50000000  0.50000000  0.20999999   0.00
0.50000000  0.50000000  0.21499999   0.00
0.50000000  0.50000000  0.22000000   0.00
0.50000000  0.50000000  0.22499999   0.00
0.50000000  0.50000000  0.22999999   0.00
0.50000000  0.50000000  0.23500000   0.00
0.50000000  0.50000000  0.23999999   0.00
0.50000000  0.50000000  0.24499999   0.00
0.50000000  0.50000000  0.25000000   0.00
0.50000000  0.50000000  0.25500000   0.00
0.50000000  0.50000000  0.25999999   0.00
0.50000000  0.50000000  0.26499999   0.00
0.50000000  0.50000000  0.26999998   0.00
0.50000000  0.50000000  0.27500001   0.00
0.50000000  0.50000000  0.28000000   0.00
0.50000000  0.50000000  0.28500000   0.00
0.50000000  0.50000000  0.28999999   0.00
0.50000000  0.50000000  0.29499999   0.00
0.50000000  0.50000000  0.29999998   0.00
0.50000000  0.50000000  0.30500001   0.00
0.50000000  0.50000000  0.31000000   0.00
0.50000000  0.50000000  0.31500000   0.00
0.50000000  0.50000000  0.31999999   0.00
0.50000000  0.50000000  0.32499999   0.00
0.50000000  0.50000000  0.32999998   0.00
0.50000000  0.50000000  0.33499998   0.00
0.50000000  0.50000000  0.34000000   0.00
0.50000000  0.50000000  0.34500000   0.00
0.50000000  0.50000000  0.34999999   0.00
0.50000000  0.50000000  0.35499999   0.00
0.50000000  0.50000000  0.35999998   0.00
0.50000000  0.50000000  0.36499998   0.00
0.50000000  0.50000000  0.37000000   0.00
0.50000000  0.50000000  0.37500000   0.00
0.50000000  0.50000000  0.38000000   0.00
0.50000000  0.50000000  0.38499999   0.00
0.50000000  0.50000000  0.38999999   0.00
0.50000000  0.50000000  0.39499998   0.00
0.50000000  0.50000000  0.39999998   0.00
0.50000000  0.50000000  0.40500000   0.00
0.50000000  0.50000000  0.41000000   0.00
0.50000000  0.50000000  0.41499999   0.00
0.50000000  0.50000000  0.41999999   0.00
0.50000000  0.50000000  0.42499998   0.00
0.50000000  0.50000000  0.42999998   0.00
0.50000000  0.50000000  0.43500000   0.00
0.50000000  0.50000000  0.44000000   0.00
0.50000000  0.50000000  0.44499999   0.00
0.50000000  0.50000000  0.44999999   0.00
0.50000000  0.50000000  0.45499998   0.00
0.50000000  0.50000000  0.45999998   0.00
0.50000000  0.50000000  0.46500000   0.00
0.50000000  0.50000000  0.47000000   0.00
0.50000000  0.50000000  0.47499999   0.00