Automatically generated mesh: SCF 16, 0.04, 3.9977X3, GXKGL
    162 
Reciprocal lattice
    0.00000000000000    0.00000000000000    0.00000000000000             1
    0.16666666666667    0.00000000000000    0.00000000000000             8
    0.33333333333333    0.00000000000000    0.00000000000000             8
    0.50000000000000    0.00000000000000    0.00000000000000             4
    0.16666666666667    0.16666666666667    0.00000000000000             6
    0.33333333333333    0.16666666666667    0.00000000000000            24
    0.50000000000000    0.16666666666667    0.00000000000000            24
   -0.33333333333333    0.16666666666667    0.00000000000000            24
   -0.16666666666667    0.16666666666667    0.00000000000000            12
    0.33333333333333    0.33333333333333    0.00000000000000             6
    0.50000000000000    0.33333333333333    0.00000000000000            24
   -0.33333333333333    0.33333333333333    0.00000000000000            12
    0.50000000000000    0.50000000000000    0.00000000000000             3
    0.50000000000000    0.33333333333333    0.16666666666667            24
   -0.33333333333333    0.33333333333333    0.16666666666667            24
   -0.33333333333333    0.50000000000000    0.16666666666667            12
0.00000000  0.00000000  0.00000000   0.00
0.01428571  0.00000000  0.01428571   0.00
0.02857143  0.00000000  0.02857143   0.00
0.04285714  0.00000000  0.04285714   0.00
0.05714286  0.00000000  0.05714286   0.00
0.07142857  0.00000000  0.07142857   0.00
0.08571429  0.00000000  0.08571429   0.00
0.09999999  0.00000000  0.09999999   0.00
0.11428571  0.00000000  0.11428571   0.00
0.12857144  0.00000000  0.12857144   0.00
0.14285715  0.00000000  0.14285715   0.00
0.15714285  0.00000000  0.15714285   0.00
0.17142858  0.00000000  0.17142858   0.00
0.18571427  0.00000000  0.18571427   0.00
0.19999999  0.00000000  0.19999999   0.00
0.21428570  0.00000000  0.21428570   0.00
0.22857143  0.00000000  0.22857143   0.00
0.24285714  0.00000000  0.24285714   0.00
0.25714287  0.00000000  0.25714287   0.00
0.27142859  0.00000000  0.27142859   0.00
0.28571430  0.00000000  0.28571430   0.00
0.29999998  0.00000000  0.29999998   0.00
0.31428570  0.00000000  0.31428570   0.00
0.32857141  0.00000000  0.32857141   0.00
0.34285715  0.00000000  0.34285715   0.00
0.35714284  0.00000000  0.35714284   0.00
0.37142855  0.00000000  0.37142855   0.00
0.38571426  0.00000000  0.38571426   0.00
0.39999998  0.00000000  0.39999998   0.00
0.41428569  0.00000000  0.41428569   0.00
0.42857140  0.00000000  0.42857140   0.00
0.44285715  0.00000000  0.44285715   0.00
0.45714286  0.00000000  0.45714286   0.00
0.47142857  0.00000000  0.47142857   0.00
0.48571429  0.00000000  0.48571429   0.00
0.50000000  0.00000000  0.50000000   0.00
0.49456522  0.01630435  0.51086956   0.00
0.48913044  0.03260870  0.52173913   0.00
0.48369566  0.04891304  0.53260869   0.00
0.47826087  0.06521739  0.54347825   0.00
0.47282609  0.08152174  0.55434781   0.00
0.46739131  0.09782609  0.56521738   0.00
0.46195653  0.11413044  0.57608694   0.00
0.45652175  0.13043478  0.58695650   0.00
0.45108697  0.14673914  0.59782606   0.00
0.44565219  0.16304348  0.60869563   0.00
0.44021741  0.17934784  0.61956519   0.00
0.43478262  0.19565217  0.63043475   0.00
0.42934781  0.21195652  0.64130437   0.00
0.42391303  0.22826087  0.65217394   0.00
0.41847825  0.24456522  0.66304350   0.00
0.41304347  0.26086956  0.67391306   0.00
0.40760869  0.27717391  0.68478262   0.00
0.40217391  0.29347828  0.69565219   0.00
0.39673913  0.30978259  0.70652175   0.00
0.39130434  0.32608697  0.71739131   0.00
0.38586956  0.34239131  0.72826087   0.00
0.38043478  0.35869569  0.73913044   0.00
0.37500000  0.37500000  0.75000000   0.00
0.36666667  0.36666667  0.73333335   0.00
0.35833332  0.35833332  0.71666664   0.00
0.34999999  0.34999999  0.69999999   0.00
0.34166667  0.34166667  0.68333334   0.00
0.33333334  0.33333334  0.66666669   0.00
0.32499999  0.32499999  0.64999998   0.00
0.31666666  0.31666666  0.63333333   0.00
0.30833334  0.30833334  0.61666667   0.00
0.30000001  0.30000001  0.60000002   0.00
0.29166666  0.29166666  0.58333331   0.00
0.28333333  0.28333333  0.56666666   0.00
0.27500001  0.27500001  0.55000001   0.00
0.26666665  0.26666665  0.53333330   0.00
0.25833333  0.25833333  0.51666665   0.00
0.24999999  0.24999999  0.49999997   0.00
0.24166666  0.24166666  0.48333332   0.00
0.23333333  0.23333333  0.46666667   0.00
0.22500001  0.22500001  0.45000002   0.00
0.21666665  0.21666665  0.43333331   0.00
0.20833333  0.20833333  0.41666666   0.00
0.20000000  0.20000000  0.40000001   0.00
0.19166665  0.19166665  0.38333330   0.00
0.18333332  0.18333332  0.36666664   0.00
0.17500000  0.17500000  0.34999999   0.00
0.16666666  0.16666666  0.33333331   0.00
0.15833333  0.15833333  0.31666666   0.00
0.14999999  0.14999999  0.29999998   0.00
0.14166667  0.14166667  0.28333333   0.00
0.13333333  0.13333333  0.26666665   0.00
0.12499997  0.12499997  0.24999994   0.00
0.11666664  0.11666664  0.23333329   0.00
0.10833332  0.10833332  0.21666664   0.00
0.09999996  0.09999996  0.19999993   0.00
0.09166667  0.09166667  0.18333334   0.00
0.08333331  0.08333331  0.16666663   0.00
0.07500002  0.07500002  0.15000004   0.00
0.06666666  0.06666666  0.13333333   0.00
0.05833331  0.05833331  0.11666662   0.00
0.05000001  0.05000001  0.10000002   0.00
0.04166666  0.04166666  0.08333331   0.00
0.03333330  0.03333330  0.06666660   0.00
0.02500001  0.02500001  0.05000001   0.00
0.01666665  0.01666665  0.03333330   0.00
0.00833330  0.00833330  0.01666659   0.00
0.00000000  0.00000000  0.00000000   0.00
0.01190476  0.01190476  0.01190476   0.00
0.02380952  0.02380952  0.02380952   0.00
0.03571428  0.03571428  0.03571428   0.00
0.04761904  0.04761904  0.04761904   0.00
0.05952381  0.05952381  0.05952381   0.00
0.07142857  0.07142857  0.07142857   0.00
0.08333334  0.08333334  0.08333334   0.00
0.09523809  0.09523809  0.09523809   0.00
0.10714285  0.10714285  0.10714285   0.00
0.11904762  0.11904762  0.11904762   0.00
0.13095237  0.13095237  0.13095237   0.00
0.14285713  0.14285713  0.14285713   0.00
0.15476190  0.15476190  0.15476190   0.00
0.16666667  0.16666667  0.16666667   0.00
0.17857142  0.17857142  0.17857142   0.00
0.19047618  0.19047618  0.19047618   0.00
0.20238096  0.20238096  0.20238096   0.00
0.21428570  0.21428570  0.21428570   0.00
0.22619046  0.22619046  0.22619046   0.00
0.23809524  0.23809524  0.23809524   0.00
0.24999999  0.24999999  0.24999999   0.00
0.26190475  0.26190475  0.26190475   0.00
0.27380952  0.27380952  0.27380952   0.00
0.28571427  0.28571427  0.28571427   0.00
0.29761904  0.29761904  0.29761904   0.00
0.30952379  0.30952379  0.30952379   0.00
0.32142854  0.32142854  0.32142854   0.00
0.33333334  0.33333334  0.33333334   0.00
0.34523809  0.34523809  0.34523809   0.00
0.35714284  0.35714284  0.35714284   0.00
0.36904761  0.36904761  0.36904761   0.00
0.38095236  0.38095236  0.38095236   0.00
0.39285710  0.39285710  0.39285710   0.00
0.40476191  0.40476191  0.40476191   0.00
0.41666666  0.41666666  0.41666666   0.00
0.42857140  0.42857140  0.42857140   0.00
0.44047618  0.44047618  0.44047618   0.00
0.45238093  0.45238093  0.45238093   0.00
0.46428567  0.46428567  0.46428567   0.00
0.47619048  0.47619048  0.47619048   0.00
0.48809522  0.48809522  0.48809522   0.00
0.49999997  0.49999997  0.49999997   0.00
