Cu2ZnSnS4 (LaFond 2014, 293 K)          
   5.43530000000000     
     1.0000000000000000    0.0000000000000000    0.0000000000000000
     0.0000000000000000    1.0000000000000000    0.0000000000000000
     0.5000000000000000    0.5000000000000000    0.9977700000000002
   Cu   Zn   Sn   S 
     2     1     1     4
Direct
  0.0000000000000000  0.0000000000000000  0.0000000000000000
  0.7500000000000000  0.2500000000000000  0.5000000000000000
  0.5000000000000000  0.5000000000000000  0.0000000000000000
  0.2500000000000000  0.7500000000000000  0.5000000000000000
  0.1177723448410717  0.1339010917405687  0.2435929961640397
  0.6386346589948886  0.6225059120953915  0.2435929961640397
  0.8660989082594313  0.3613653410051114  0.7564070038359603
  0.3774940879046156  0.8822276551589212  0.7564070038359603
 
  0.00000000E+00  0.00000000E+00  0.00000000E+00
  0.00000000E+00  0.00000000E+00  0.00000000E+00
  0.00000000E+00  0.00000000E+00  0.00000000E+00
  0.00000000E+00  0.00000000E+00  0.00000000E+00
  0.00000000E+00  0.00000000E+00  0.00000000E+00
  0.00000000E+00  0.00000000E+00  0.00000000E+00
  0.00000000E+00  0.00000000E+00  0.00000000E+00
  0.00000000E+00  0.00000000E+00  0.00000000E+00
