Automatically generated mesh
     465
Reciprocal lattice
    0.00000000000000    0.00000000000000    0.00000000000000             1
    0.16666666666667    0.00000000000000    0.00000000000000             1
    0.33333333333333    0.00000000000000    0.00000000000000             1
    0.50000000000000    0.00000000000000    0.00000000000000             1
   -0.33333333333333    0.00000000000000    0.00000000000000             1
   -0.16666666666667    0.00000000000000    0.00000000000000             1
    0.00000000000000    0.16666666666667    0.00000000000000             1
    0.16666666666667    0.16666666666667    0.00000000000000             1
    0.33333333333333    0.16666666666667    0.00000000000000             1
    0.50000000000000    0.16666666666667    0.00000000000000             1
   -0.33333333333333    0.16666666666667    0.00000000000000             1
   -0.16666666666667    0.16666666666667    0.00000000000000             1
    0.00000000000000    0.33333333333333    0.00000000000000             1
    0.16666666666667    0.33333333333333    0.00000000000000             1
    0.33333333333333    0.33333333333333    0.00000000000000             1
    0.50000000000000    0.33333333333333    0.00000000000000             1
   -0.33333333333333    0.33333333333333    0.00000000000000             1
   -0.16666666666667    0.33333333333333    0.00000000000000             1
    0.00000000000000    0.50000000000000    0.00000000000000             1
    0.16666666666667    0.50000000000000    0.00000000000000             1
    0.33333333333333    0.50000000000000    0.00000000000000             1
    0.50000000000000    0.50000000000000    0.00000000000000             1
   -0.33333333333333    0.50000000000000    0.00000000000000             1
   -0.16666666666667    0.50000000000000    0.00000000000000             1
    0.00000000000000   -0.33333333333333    0.00000000000000             1
    0.16666666666667   -0.33333333333333    0.00000000000000             1
    0.33333333333333   -0.33333333333333    0.00000000000000             1
    0.50000000000000   -0.33333333333333    0.00000000000000             1
   -0.33333333333333   -0.33333333333333    0.00000000000000             1
   -0.16666666666667   -0.33333333333333    0.00000000000000             1
    0.00000000000000   -0.16666666666667    0.00000000000000             1
    0.16666666666667   -0.16666666666667    0.00000000000000             1
    0.33333333333333   -0.16666666666667    0.00000000000000             1
    0.50000000000000   -0.16666666666667    0.00000000000000             1
   -0.33333333333333   -0.16666666666667    0.00000000000000             1
   -0.16666666666667   -0.16666666666667    0.00000000000000             1
    0.00000000000000    0.00000000000000    0.16666666666667             1
    0.16666666666667    0.00000000000000    0.16666666666667             1
    0.33333333333333    0.00000000000000    0.16666666666667             1
    0.50000000000000    0.00000000000000    0.16666666666667             1
   -0.33333333333333    0.00000000000000    0.16666666666667             1
   -0.16666666666667    0.00000000000000    0.16666666666667             1
    0.00000000000000    0.16666666666667    0.16666666666667             1
    0.16666666666667    0.16666666666667    0.16666666666667             1
    0.33333333333333    0.16666666666667    0.16666666666667             1
    0.50000000000000    0.16666666666667    0.16666666666667             1
   -0.33333333333333    0.16666666666667    0.16666666666667             1
   -0.16666666666667    0.16666666666667    0.16666666666667             1
    0.00000000000000    0.33333333333333    0.16666666666667             1
    0.16666666666667    0.33333333333333    0.16666666666667             1
    0.33333333333333    0.33333333333333    0.16666666666667             1
    0.50000000000000    0.33333333333333    0.16666666666667             1
   -0.33333333333333    0.33333333333333    0.16666666666667             1
   -0.16666666666667    0.33333333333333    0.16666666666667             1
    0.00000000000000    0.50000000000000    0.16666666666667             1
    0.16666666666667    0.50000000000000    0.16666666666667             1
    0.33333333333333    0.50000000000000    0.16666666666667             1
    0.50000000000000    0.50000000000000    0.16666666666667             1
   -0.33333333333333    0.50000000000000    0.16666666666667             1
   -0.16666666666667    0.50000000000000    0.16666666666667             1
    0.00000000000000   -0.33333333333333    0.16666666666667             1
    0.16666666666667   -0.33333333333333    0.16666666666667             1
    0.33333333333333   -0.33333333333333    0.16666666666667             1
    0.50000000000000   -0.33333333333333    0.16666666666667             1
   -0.33333333333333   -0.33333333333333    0.16666666666667             1
   -0.16666666666667   -0.33333333333333    0.16666666666667             1
    0.00000000000000   -0.16666666666667    0.16666666666667             1
    0.16666666666667   -0.16666666666667    0.16666666666667             1
    0.33333333333333   -0.16666666666667    0.16666666666667             1
    0.50000000000000   -0.16666666666667    0.16666666666667             1
   -0.33333333333333   -0.16666666666667    0.16666666666667             1
   -0.16666666666667   -0.16666666666667    0.16666666666667             1
    0.00000000000000    0.00000000000000    0.33333333333333             1
    0.16666666666667    0.00000000000000    0.33333333333333             1
    0.33333333333333    0.00000000000000    0.33333333333333             1
    0.50000000000000    0.00000000000000    0.33333333333333             1
   -0.33333333333333    0.00000000000000    0.33333333333333             1
   -0.16666666666667    0.00000000000000    0.33333333333333             1
    0.00000000000000    0.16666666666667    0.33333333333333             1
    0.16666666666667    0.16666666666667    0.33333333333333             1
    0.33333333333333    0.16666666666667    0.33333333333333             1
    0.50000000000000    0.16666666666667    0.33333333333333             1
   -0.33333333333333    0.16666666666667    0.33333333333333             1
   -0.16666666666667    0.16666666666667    0.33333333333333             1
    0.00000000000000    0.33333333333333    0.33333333333333             1
    0.16666666666667    0.33333333333333    0.33333333333333             1
    0.33333333333333    0.33333333333333    0.33333333333333             1
    0.50000000000000    0.33333333333333    0.33333333333333             1
   -0.33333333333333    0.33333333333333    0.33333333333333             1
   -0.16666666666667    0.33333333333333    0.33333333333333             1
    0.00000000000000    0.50000000000000    0.33333333333333             1
    0.16666666666667    0.50000000000000    0.33333333333333             1
    0.33333333333333    0.50000000000000    0.33333333333333             1
    0.50000000000000    0.50000000000000    0.33333333333333             1
   -0.33333333333333    0.50000000000000    0.33333333333333             1
   -0.16666666666667    0.50000000000000    0.33333333333333             1
    0.00000000000000   -0.33333333333333    0.33333333333333             1
    0.16666666666667   -0.33333333333333    0.33333333333333             1
    0.33333333333333   -0.33333333333333    0.33333333333333             1
    0.50000000000000   -0.33333333333333    0.33333333333333             1
   -0.33333333333333   -0.33333333333333    0.33333333333333             1
   -0.16666666666667   -0.33333333333333    0.33333333333333             1
    0.00000000000000   -0.16666666666667    0.33333333333333             1
    0.16666666666667   -0.16666666666667    0.33333333333333             1
    0.33333333333333   -0.16666666666667    0.33333333333333             1
    0.50000000000000   -0.16666666666667    0.33333333333333             1
   -0.33333333333333   -0.16666666666667    0.33333333333333             1
   -0.16666666666667   -0.16666666666667    0.33333333333333             1
    0.00000000000000    0.00000000000000    0.50000000000000             1
    0.16666666666667    0.00000000000000    0.50000000000000             1
    0.33333333333333    0.00000000000000    0.50000000000000             1
    0.50000000000000    0.00000000000000    0.50000000000000             1
   -0.33333333333333    0.00000000000000    0.50000000000000             1
   -0.16666666666667    0.00000000000000    0.50000000000000             1
    0.00000000000000    0.16666666666667    0.50000000000000             1
    0.16666666666667    0.16666666666667    0.50000000000000             1
    0.33333333333333    0.16666666666667    0.50000000000000             1
    0.50000000000000    0.16666666666667    0.50000000000000             1
   -0.33333333333333    0.16666666666667    0.50000000000000             1
   -0.16666666666667    0.16666666666667    0.50000000000000             1
    0.00000000000000    0.33333333333333    0.50000000000000             1
    0.16666666666667    0.33333333333333    0.50000000000000             1
    0.33333333333333    0.33333333333333    0.50000000000000             1
    0.50000000000000    0.33333333333333    0.50000000000000             1
   -0.33333333333333    0.33333333333333    0.50000000000000             1
   -0.16666666666667    0.33333333333333    0.50000000000000             1
    0.00000000000000    0.50000000000000    0.50000000000000             1
    0.16666666666667    0.50000000000000    0.50000000000000             1
    0.33333333333333    0.50000000000000    0.50000000000000             1
    0.50000000000000    0.50000000000000    0.50000000000000             1
   -0.33333333333333    0.50000000000000    0.50000000000000             1
   -0.16666666666667    0.50000000000000    0.50000000000000             1
    0.00000000000000   -0.33333333333333    0.50000000000000             1
    0.16666666666667   -0.33333333333333    0.50000000000000             1
    0.33333333333333   -0.33333333333333    0.50000000000000             1
    0.50000000000000   -0.33333333333333    0.50000000000000             1
   -0.33333333333333   -0.33333333333333    0.50000000000000             1
   -0.16666666666667   -0.33333333333333    0.50000000000000             1
    0.00000000000000   -0.16666666666667    0.50000000000000             1
    0.16666666666667   -0.16666666666667    0.50000000000000             1
    0.33333333333333   -0.16666666666667    0.50000000000000             1
    0.50000000000000   -0.16666666666667    0.50000000000000             1
   -0.33333333333333   -0.16666666666667    0.50000000000000             1
   -0.16666666666667   -0.16666666666667    0.50000000000000             1
    0.00000000000000    0.00000000000000   -0.33333333333333             1
    0.16666666666667    0.00000000000000   -0.33333333333333             1
    0.33333333333333    0.00000000000000   -0.33333333333333             1
    0.50000000000000    0.00000000000000   -0.33333333333333             1
   -0.33333333333333    0.00000000000000   -0.33333333333333             1
   -0.16666666666667    0.00000000000000   -0.33333333333333             1
    0.00000000000000    0.16666666666667   -0.33333333333333             1
    0.16666666666667    0.16666666666667   -0.33333333333333             1
    0.33333333333333    0.16666666666667   -0.33333333333333             1
    0.50000000000000    0.16666666666667   -0.33333333333333             1
   -0.33333333333333    0.16666666666667   -0.33333333333333             1
   -0.16666666666667    0.16666666666667   -0.33333333333333             1
    0.00000000000000    0.33333333333333   -0.33333333333333             1
    0.16666666666667    0.33333333333333   -0.33333333333333             1
    0.33333333333333    0.33333333333333   -0.33333333333333             1
    0.50000000000000    0.33333333333333   -0.33333333333333             1
   -0.33333333333333    0.33333333333333   -0.33333333333333             1
   -0.16666666666667    0.33333333333333   -0.33333333333333             1
    0.00000000000000    0.50000000000000   -0.33333333333333             1
    0.16666666666667    0.50000000000000   -0.33333333333333             1
    0.33333333333333    0.50000000000000   -0.33333333333333             1
    0.50000000000000    0.50000000000000   -0.33333333333333             1
   -0.33333333333333    0.50000000000000   -0.33333333333333             1
   -0.16666666666667    0.50000000000000   -0.33333333333333             1
    0.00000000000000   -0.33333333333333   -0.33333333333333             1
    0.16666666666667   -0.33333333333333   -0.33333333333333             1
    0.33333333333333   -0.33333333333333   -0.33333333333333             1
    0.50000000000000   -0.33333333333333   -0.33333333333333             1
   -0.33333333333333   -0.33333333333333   -0.33333333333333             1
   -0.16666666666667   -0.33333333333333   -0.33333333333333             1
    0.00000000000000   -0.16666666666667   -0.33333333333333             1
    0.16666666666667   -0.16666666666667   -0.33333333333333             1
    0.33333333333333   -0.16666666666667   -0.33333333333333             1
    0.50000000000000   -0.16666666666667   -0.33333333333333             1
   -0.33333333333333   -0.16666666666667   -0.33333333333333             1
   -0.16666666666667   -0.16666666666667   -0.33333333333333             1
    0.00000000000000    0.00000000000000   -0.16666666666667             1
    0.16666666666667    0.00000000000000   -0.16666666666667             1
    0.33333333333333    0.00000000000000   -0.16666666666667             1
    0.50000000000000    0.00000000000000   -0.16666666666667             1
   -0.33333333333333    0.00000000000000   -0.16666666666667             1
   -0.16666666666667    0.00000000000000   -0.16666666666667             1
    0.00000000000000    0.16666666666667   -0.16666666666667             1
    0.16666666666667    0.16666666666667   -0.16666666666667             1
    0.33333333333333    0.16666666666667   -0.16666666666667             1
    0.50000000000000    0.16666666666667   -0.16666666666667             1
   -0.33333333333333    0.16666666666667   -0.16666666666667             1
   -0.16666666666667    0.16666666666667   -0.16666666666667             1
    0.00000000000000    0.33333333333333   -0.16666666666667             1
    0.16666666666667    0.33333333333333   -0.16666666666667             1
    0.33333333333333    0.33333333333333   -0.16666666666667             1
    0.50000000000000    0.33333333333333   -0.16666666666667             1
   -0.33333333333333    0.33333333333333   -0.16666666666667             1
   -0.16666666666667    0.33333333333333   -0.16666666666667             1
    0.00000000000000    0.50000000000000   -0.16666666666667             1
    0.16666666666667    0.50000000000000   -0.16666666666667             1
    0.33333333333333    0.50000000000000   -0.16666666666667             1
    0.50000000000000    0.50000000000000   -0.16666666666667             1
   -0.33333333333333    0.50000000000000   -0.16666666666667             1
   -0.16666666666667    0.50000000000000   -0.16666666666667             1
    0.00000000000000   -0.33333333333333   -0.16666666666667             1
    0.16666666666667   -0.33333333333333   -0.16666666666667             1
    0.33333333333333   -0.33333333333333   -0.16666666666667             1
    0.50000000000000   -0.33333333333333   -0.16666666666667             1
   -0.33333333333333   -0.33333333333333   -0.16666666666667             1
   -0.16666666666667   -0.33333333333333   -0.16666666666667             1
    0.00000000000000   -0.16666666666667   -0.16666666666667             1
    0.16666666666667   -0.16666666666667   -0.16666666666667             1
    0.33333333333333   -0.16666666666667   -0.16666666666667             1
    0.50000000000000   -0.16666666666667   -0.16666666666667             1
   -0.33333333333333   -0.16666666666667   -0.16666666666667             1
   -0.16666666666667   -0.16666666666667   -0.16666666666667             1
0.00000000  0.00000000  0.00000000   0.00
0.00847458  0.00000000  0.00847458   0.00
0.01694915  0.00000000  0.01694915   0.00
0.02542373  0.00000000  0.02542373   0.00
0.03389831  0.00000000  0.03389831   0.00
0.04237288  0.00000000  0.04237288   0.00
0.05084746  0.00000000  0.05084746   0.00
0.05932203  0.00000000  0.05932203   0.00
0.06779661  0.00000000  0.06779661   0.00
0.07627119  0.00000000  0.07627119   0.00
0.08474576  0.00000000  0.08474576   0.00
0.09322034  0.00000000  0.09322034   0.00
0.10169491  0.00000000  0.10169491   0.00
0.11016949  0.00000000  0.11016949   0.00
0.11864407  0.00000000  0.11864407   0.00
0.12711865  0.00000000  0.12711865   0.00
0.13559322  0.00000000  0.13559322   0.00
0.14406779  0.00000000  0.14406779   0.00
0.15254238  0.00000000  0.15254238   0.00
0.16101694  0.00000000  0.16101694   0.00
0.16949153  0.00000000  0.16949153   0.00
0.17796610  0.00000000  0.17796610   0.00
0.18644068  0.00000000  0.18644068   0.00
0.19491525  0.00000000  0.19491525   0.00
0.20338982  0.00000000  0.20338982   0.00
0.21186441  0.00000000  0.21186441   0.00
0.22033899  0.00000000  0.22033899   0.00
0.22881356  0.00000000  0.22881356   0.00
0.23728813  0.00000000  0.23728813   0.00
0.24576271  0.00000000  0.24576271   0.00
0.25423729  0.00000000  0.25423729   0.00
0.26271188  0.00000000  0.26271188   0.00
0.27118644  0.00000000  0.27118644   0.00
0.27966100  0.00000000  0.27966100   0.00
0.28813559  0.00000000  0.28813559   0.00
0.29661018  0.00000000  0.29661018   0.00
0.30508476  0.00000000  0.30508476   0.00
0.31355932  0.00000000  0.31355932   0.00
0.32203388  0.00000000  0.32203388   0.00
0.33050847  0.00000000  0.33050847   0.00
0.33898306  0.00000000  0.33898306   0.00
0.34745765  0.00000000  0.34745765   0.00
0.35593221  0.00000000  0.35593221   0.00
0.36440679  0.00000000  0.36440679   0.00
0.37288135  0.00000000  0.37288135   0.00
0.38135594  0.00000000  0.38135594   0.00
0.38983050  0.00000000  0.38983050   0.00
0.39830509  0.00000000  0.39830509   0.00
0.40677965  0.00000000  0.40677965   0.00
0.41525424  0.00000000  0.41525424   0.00
0.42372882  0.00000000  0.42372882   0.00
0.43220338  0.00000000  0.43220338   0.00
0.44067797  0.00000000  0.44067797   0.00
0.44915253  0.00000000  0.44915253   0.00
0.45762712  0.00000000  0.45762712   0.00
0.46610171  0.00000000  0.46610171   0.00
0.47457626  0.00000000  0.47457626   0.00
0.48305085  0.00000000  0.48305085   0.00
0.49152541  0.00000000  0.49152541   0.00
0.50000000  0.00000000  0.50000000   0.00
0.49679488  0.00961538  0.50641024   0.00
0.49358973  0.01923077  0.51282054   0.00
0.49038461  0.02884615  0.51923078   0.00
0.48717949  0.03846154  0.52564102   0.00
0.48397437  0.04807692  0.53205127   0.00
0.48076922  0.05769231  0.53846157   0.00
0.47756410  0.06730769  0.54487181   0.00
0.47435898  0.07692307  0.55128205   0.00
0.47115386  0.08653846  0.55769229   0.00
0.46794873  0.09615385  0.56410253   0.00
0.46474358  0.10576922  0.57051283   0.00
0.46153846  0.11538462  0.57692307   0.00
0.45833334  0.12500000  0.58333331   0.00
0.45512819  0.13461538  0.58974361   0.00
0.45192307  0.14423077  0.59615386   0.00
0.44871795  0.15384614  0.60256410   0.00
0.44551283  0.16346154  0.60897434   0.00
0.44230768  0.17307693  0.61538464   0.00
0.43910256  0.18269230  0.62179488   0.00
0.43589744  0.19230770  0.62820512   0.00
0.43269232  0.20192307  0.63461536   0.00
0.42948717  0.21153845  0.64102566   0.00
0.42628205  0.22115384  0.64743590   0.00
0.42307693  0.23076923  0.65384614   0.00
0.41987181  0.24038461  0.66025639   0.00
0.41666669  0.25000000  0.66666663   0.00
0.41346154  0.25961539  0.67307693   0.00
0.41025642  0.26923075  0.67948717   0.00
0.40705130  0.27884614  0.68589741   0.00
0.40384614  0.28846154  0.69230771   0.00
0.40064102  0.29807693  0.69871795   0.00
0.39743590  0.30769229  0.70512819   0.00
0.39423078  0.31730768  0.71153843   0.00
0.39102566  0.32692307  0.71794868   0.00
0.38782051  0.33653846  0.72435898   0.00
0.38461539  0.34615386  0.73076922   0.00
0.38141027  0.35576925  0.73717946   0.00
0.37820512  0.36538461  0.74358976   0.00
0.37500000  0.37500000  0.75000000   0.00
0.37012988  0.37012988  0.74025977   0.00
0.36525974  0.36525974  0.73051947   0.00
0.36038962  0.36038962  0.72077924   0.00
0.35551947  0.35551947  0.71103895   0.00
0.35064936  0.35064936  0.70129871   0.00
0.34577921  0.34577921  0.69155842   0.00
0.34090909  0.34090909  0.68181819   0.00
0.33603895  0.33603895  0.67207789   0.00
0.33116883  0.33116883  0.66233766   0.00
0.32629871  0.32629871  0.65259743   0.00
0.32142857  0.32142857  0.64285713   0.00
0.31655845  0.31655845  0.63311690   0.00
0.31168830  0.31168830  0.62337661   0.00
0.30681819  0.30681819  0.61363637   0.00
0.30194807  0.30194807  0.60389614   0.00
0.29707792  0.29707792  0.59415585   0.00
0.29220778  0.29220778  0.58441556   0.00
0.28733766  0.28733766  0.57467532   0.00
0.28246754  0.28246754  0.56493509   0.00
0.27759740  0.27759740  0.55519480   0.00
0.27272728  0.27272728  0.54545456   0.00
0.26785713  0.26785713  0.53571427   0.00
0.26298702  0.26298702  0.52597404   0.00
0.25811690  0.25811690  0.51623380   0.00
0.25324675  0.25324675  0.50649351   0.00
0.24837662  0.24837662  0.49675325   0.00
0.24350649  0.24350649  0.48701298   0.00
0.23863636  0.23863636  0.47727272   0.00
0.23376623  0.23376623  0.46753246   0.00
0.22889611  0.22889611  0.45779222   0.00
0.22402598  0.22402598  0.44805196   0.00
0.21915585  0.21915585  0.43831170   0.00
0.21428570  0.21428570  0.42857140   0.00
0.20941558  0.20941558  0.41883117   0.00
0.20454547  0.20454547  0.40909094   0.00
0.19967532  0.19967532  0.39935064   0.00
0.19480519  0.19480519  0.38961038   0.00
0.18993506  0.18993506  0.37987012   0.00
0.18506494  0.18506494  0.37012988   0.00
0.18019481  0.18019481  0.36038962   0.00
0.17532466  0.17532466  0.35064933   0.00
0.17045455  0.17045455  0.34090909   0.00
0.16558443  0.16558443  0.33116886   0.00
0.16071428  0.16071428  0.32142857   0.00
0.15584415  0.15584415  0.31168830   0.00
0.15097402  0.15097402  0.30194804   0.00
0.14610390  0.14610390  0.29220781   0.00
0.14123377  0.14123377  0.28246754   0.00
0.13636363  0.13636363  0.27272725   0.00
0.13149351  0.13149351  0.26298702   0.00
0.12662339  0.12662339  0.25324678   0.00
0.12175325  0.12175325  0.24350649   0.00
0.11688310  0.11688310  0.23376620   0.00
0.11201298  0.11201298  0.22402596   0.00
0.10714287  0.10714287  0.21428573   0.00
0.10227272  0.10227272  0.20454544   0.00
0.09740260  0.09740260  0.19480520   0.00
0.09253246  0.09253246  0.18506491   0.00
0.08766234  0.08766234  0.17532468   0.00
0.08279222  0.08279222  0.16558444   0.00
0.07792208  0.07792208  0.15584415   0.00
0.07305196  0.07305196  0.14610392   0.00
0.06818181  0.06818181  0.13636363   0.00
0.06331170  0.06331170  0.12662339   0.00
0.05844155  0.05844155  0.11688310   0.00
0.05357140  0.05357140  0.10714281   0.00
0.04870132  0.04870132  0.09740263   0.00
0.04383117  0.04383117  0.08766234   0.00
0.03896102  0.03896102  0.07792205   0.00
0.03409094  0.03409094  0.06818187   0.00
0.02922079  0.02922079  0.05844158   0.00
0.02435064  0.02435064  0.04870129   0.00
0.01948050  0.01948050  0.03896099   0.00
0.01461038  0.01461038  0.02922076   0.00
0.00974026  0.00974026  0.01948053   0.00
0.00487012  0.00487012  0.00974023   0.00
0.00000000  0.00000000  0.00000000   0.00
0.00684932  0.00684932  0.00684932   0.00
0.01369863  0.01369863  0.01369863   0.00
0.02054794  0.02054794  0.02054794   0.00
0.02739726  0.02739726  0.02739726   0.00
0.03424658  0.03424658  0.03424658   0.00
0.04109589  0.04109589  0.04109589   0.00
0.04794521  0.04794521  0.04794521   0.00
0.05479452  0.05479452  0.05479452   0.00
0.06164383  0.06164383  0.06164383   0.00
0.06849315  0.06849315  0.06849315   0.00
0.07534247  0.07534247  0.07534247   0.00
0.08219177  0.08219177  0.08219177   0.00
0.08904109  0.08904109  0.08904109   0.00
0.09589041  0.09589041  0.09589041   0.00
0.10273972  0.10273972  0.10273972   0.00
0.10958904  0.10958904  0.10958904   0.00
0.11643835  0.11643835  0.11643835   0.00
0.12328766  0.12328766  0.12328766   0.00
0.13013698  0.13013698  0.13013698   0.00
0.13698630  0.13698630  0.13698630   0.00
0.14383560  0.14383560  0.14383560   0.00
0.15068494  0.15068494  0.15068494   0.00
0.15753424  0.15753424  0.15753424   0.00
0.16438355  0.16438355  0.16438355   0.00
0.17123288  0.17123288  0.17123288   0.00
0.17808218  0.17808218  0.17808218   0.00
0.18493150  0.18493150  0.18493150   0.00
0.19178082  0.19178082  0.19178082   0.00
0.19863012  0.19863012  0.19863012   0.00
0.20547944  0.20547944  0.20547944   0.00
0.21232876  0.21232876  0.21232876   0.00
0.21917808  0.21917808  0.21917808   0.00
0.22602738  0.22602738  0.22602738   0.00
0.23287670  0.23287670  0.23287670   0.00
0.23972602  0.23972602  0.23972602   0.00
0.24657533  0.24657533  0.24657533   0.00
0.25342464  0.25342464  0.25342464   0.00
0.26027396  0.26027396  0.26027396   0.00
0.26712328  0.26712328  0.26712328   0.00
0.27397260  0.27397260  0.27397260   0.00
0.28082192  0.28082192  0.28082192   0.00
0.28767121  0.28767121  0.28767121   0.00
0.29452053  0.29452053  0.29452053   0.00
0.30136988  0.30136988  0.30136988   0.00
0.30821916  0.30821916  0.30821916   0.00
0.31506848  0.31506848  0.31506848   0.00
0.32191780  0.32191780  0.32191780   0.00
0.32876709  0.32876709  0.32876709   0.00
0.33561641  0.33561641  0.33561641   0.00
0.34246576  0.34246576  0.34246576   0.00
0.34931508  0.34931508  0.34931508   0.00
0.35616437  0.35616437  0.35616437   0.00
0.36301368  0.36301368  0.36301368   0.00
0.36986300  0.36986300  0.36986300   0.00
0.37671229  0.37671229  0.37671229   0.00
0.38356164  0.38356164  0.38356164   0.00
0.39041096  0.39041096  0.39041096   0.00
0.39726025  0.39726025  0.39726025   0.00
0.40410957  0.40410957  0.40410957   0.00
0.41095889  0.41095889  0.41095889   0.00
0.41780818  0.41780818  0.41780818   0.00
0.42465752  0.42465752  0.42465752   0.00
0.43150684  0.43150684  0.43150684   0.00
0.43835616  0.43835616  0.43835616   0.00
0.44520545  0.44520545  0.44520545   0.00
0.45205477  0.45205477  0.45205477   0.00
0.45890412  0.45890412  0.45890412   0.00
0.46575341  0.46575341  0.46575341   0.00
0.47260273  0.47260273  0.47260273   0.00
0.47945204  0.47945204  0.47945204   0.00
0.48630136  0.48630136  0.48630136   0.00
0.49315065  0.49315065  0.49315065   0.00
0.50000000  0.50000000  0.50000000   0.00
