Automatically generated mesh: SCF 16, 0.005, 3.9977X3, GXKGL
    1158
Reciprocal lattice
    0.00000000000000    0.00000000000000    0.00000000000000             1
    0.16666666666667    0.00000000000000    0.00000000000000             8
    0.33333333333333    0.00000000000000    0.00000000000000             8
    0.50000000000000    0.00000000000000    0.00000000000000             4
    0.16666666666667    0.16666666666667    0.00000000000000             6
    0.33333333333333    0.16666666666667    0.00000000000000            24
    0.50000000000000    0.16666666666667    0.00000000000000            24
   -0.33333333333333    0.16666666666667    0.00000000000000            24
   -0.16666666666667    0.16666666666667    0.00000000000000            12
    0.33333333333333    0.33333333333333    0.00000000000000             6
    0.50000000000000    0.33333333333333    0.00000000000000            24
   -0.33333333333333    0.33333333333333    0.00000000000000            12
    0.50000000000000    0.50000000000000    0.00000000000000             3
    0.50000000000000    0.33333333333333    0.16666666666667            24
   -0.33333333333333    0.33333333333333    0.16666666666667            24
   -0.33333333333333    0.50000000000000    0.16666666666667            12
0.00000000  0.00000000  0.00000000   0.00
0.00183150  0.00000000  0.00183150   0.00
0.00366300  0.00000000  0.00366300   0.00
0.00549451  0.00000000  0.00549451   0.00
0.00732601  0.00000000  0.00732601   0.00
0.00915751  0.00000000  0.00915751   0.00
0.01098901  0.00000000  0.01098901   0.00
0.01282051  0.00000000  0.01282051   0.00
0.01465201  0.00000000  0.01465201   0.00
0.01648352  0.00000000  0.01648352   0.00
0.01831502  0.00000000  0.01831502   0.00
0.02014652  0.00000000  0.02014652   0.00
0.02197802  0.00000000  0.02197802   0.00
0.02380952  0.00000000  0.02380952   0.00
0.02564103  0.00000000  0.02564103   0.00
0.02747253  0.00000000  0.02747253   0.00
0.02930403  0.00000000  0.02930403   0.00
0.03113553  0.00000000  0.03113553   0.00
0.03296703  0.00000000  0.03296703   0.00
0.03479854  0.00000000  0.03479854   0.00
0.03663004  0.00000000  0.03663004   0.00
0.03846154  0.00000000  0.03846154   0.00
0.04029304  0.00000000  0.04029304   0.00
0.04212454  0.00000000  0.04212454   0.00
0.04395605  0.00000000  0.04395605   0.00
0.04578755  0.00000000  0.04578755   0.00
0.04761905  0.00000000  0.04761905   0.00
0.04945055  0.00000000  0.04945055   0.00
0.05128205  0.00000000  0.05128205   0.00
0.05311355  0.00000000  0.05311355   0.00
0.05494506  0.00000000  0.05494506   0.00
0.05677656  0.00000000  0.05677656   0.00
0.05860806  0.00000000  0.05860806   0.00
0.06043956  0.00000000  0.06043956   0.00
0.06227106  0.00000000  0.06227106   0.00
0.06410257  0.00000000  0.06410257   0.00
0.06593407  0.00000000  0.06593407   0.00
0.06776557  0.00000000  0.06776557   0.00
0.06959707  0.00000000  0.06959707   0.00
0.07142857  0.00000000  0.07142857   0.00
0.07326008  0.00000000  0.07326008   0.00
0.07509158  0.00000000  0.07509158   0.00
0.07692308  0.00000000  0.07692308   0.00
0.07875458  0.00000000  0.07875458   0.00
0.08058608  0.00000000  0.08058608   0.00
0.08241758  0.00000000  0.08241758   0.00
0.08424909  0.00000000  0.08424909   0.00
0.08608059  0.00000000  0.08608059   0.00
0.08791209  0.00000000  0.08791209   0.00
0.08974359  0.00000000  0.08974359   0.00
0.09157509  0.00000000  0.09157509   0.00
0.09340660  0.00000000  0.09340660   0.00
0.09523810  0.00000000  0.09523810   0.00
0.09706960  0.00000000  0.09706960   0.00
0.09890110  0.00000000  0.09890110   0.00
0.10073260  0.00000000  0.10073260   0.00
0.10256410  0.00000000  0.10256410   0.00
0.10439561  0.00000000  0.10439561   0.00
0.10622711  0.00000000  0.10622711   0.00
0.10805861  0.00000000  0.10805861   0.00
0.10989011  0.00000000  0.10989011   0.00
0.11172161  0.00000000  0.11172161   0.00
0.11355311  0.00000000  0.11355311   0.00
0.11538462  0.00000000  0.11538462   0.00
0.11721612  0.00000000  0.11721612   0.00
0.11904762  0.00000000  0.11904762   0.00
0.12087912  0.00000000  0.12087912   0.00
0.12271062  0.00000000  0.12271062   0.00
0.12454212  0.00000000  0.12454212   0.00
0.12637363  0.00000000  0.12637363   0.00
0.12820514  0.00000000  0.12820514   0.00
0.13003664  0.00000000  0.13003664   0.00
0.13186814  0.00000000  0.13186814   0.00
0.13369964  0.00000000  0.13369964   0.00
0.13553114  0.00000000  0.13553114   0.00
0.13736264  0.00000000  0.13736264   0.00
0.13919415  0.00000000  0.13919415   0.00
0.14102565  0.00000000  0.14102565   0.00
0.14285715  0.00000000  0.14285715   0.00
0.14468865  0.00000000  0.14468865   0.00
0.14652015  0.00000000  0.14652015   0.00
0.14835165  0.00000000  0.14835165   0.00
0.15018316  0.00000000  0.15018316   0.00
0.15201466  0.00000000  0.15201466   0.00
0.15384616  0.00000000  0.15384616   0.00
0.15567766  0.00000000  0.15567766   0.00
0.15750916  0.00000000  0.15750916   0.00
0.15934066  0.00000000  0.15934066   0.00
0.16117217  0.00000000  0.16117217   0.00
0.16300367  0.00000000  0.16300367   0.00
0.16483517  0.00000000  0.16483517   0.00
0.16666667  0.00000000  0.16666667   0.00
0.16849817  0.00000000  0.16849817   0.00
0.17032968  0.00000000  0.17032968   0.00
0.17216118  0.00000000  0.17216118   0.00
0.17399268  0.00000000  0.17399268   0.00
0.17582418  0.00000000  0.17582418   0.00
0.17765567  0.00000000  0.17765567   0.00
0.17948718  0.00000000  0.17948718   0.00
0.18131870  0.00000000  0.18131870   0.00
0.18315019  0.00000000  0.18315019   0.00
0.18498167  0.00000000  0.18498167   0.00
0.18681319  0.00000000  0.18681319   0.00
0.18864471  0.00000000  0.18864471   0.00
0.19047619  0.00000000  0.19047619   0.00
0.19230768  0.00000000  0.19230768   0.00
0.19413920  0.00000000  0.19413920   0.00
0.19597071  0.00000000  0.19597071   0.00
0.19780220  0.00000000  0.19780220   0.00
0.19963369  0.00000000  0.19963369   0.00
0.20146520  0.00000000  0.20146520   0.00
0.20329672  0.00000000  0.20329672   0.00
0.20512821  0.00000000  0.20512821   0.00
0.20695969  0.00000000  0.20695969   0.00
0.20879121  0.00000000  0.20879121   0.00
0.21062273  0.00000000  0.21062273   0.00
0.21245421  0.00000000  0.21245421   0.00
0.21428570  0.00000000  0.21428570   0.00
0.21611722  0.00000000  0.21611722   0.00
0.21794873  0.00000000  0.21794873   0.00
0.21978022  0.00000000  0.21978022   0.00
0.22161171  0.00000000  0.22161171   0.00
0.22344323  0.00000000  0.22344323   0.00
0.22527474  0.00000000  0.22527474   0.00
0.22710623  0.00000000  0.22710623   0.00
0.22893773  0.00000000  0.22893773   0.00
0.23076923  0.00000000  0.23076923   0.00
0.23260075  0.00000000  0.23260075   0.00
0.23443224  0.00000000  0.23443224   0.00
0.23626374  0.00000000  0.23626374   0.00
0.23809524  0.00000000  0.23809524   0.00
0.23992676  0.00000000  0.23992676   0.00
0.24175824  0.00000000  0.24175824   0.00
0.24358974  0.00000000  0.24358974   0.00
0.24542125  0.00000000  0.24542125   0.00
0.24725276  0.00000000  0.24725276   0.00
0.24908425  0.00000000  0.24908425   0.00
0.25091574  0.00000000  0.25091574   0.00
0.25274727  0.00000000  0.25274727   0.00
0.25457877  0.00000000  0.25457877   0.00
0.25641027  0.00000000  0.25641027   0.00
0.25824174  0.00000000  0.25824174   0.00
0.26007327  0.00000000  0.26007327   0.00
0.26190478  0.00000000  0.26190478   0.00
0.26373628  0.00000000  0.26373628   0.00
0.26556775  0.00000000  0.26556775   0.00
0.26739928  0.00000000  0.26739928   0.00
0.26923078  0.00000000  0.26923078   0.00
0.27106228  0.00000000  0.27106228   0.00
0.27289376  0.00000000  0.27289376   0.00
0.27472529  0.00000000  0.27472529   0.00
0.27655679  0.00000000  0.27655679   0.00
0.27838829  0.00000000  0.27838829   0.00
0.28021976  0.00000000  0.28021976   0.00
0.28205130  0.00000000  0.28205130   0.00
0.28388280  0.00000000  0.28388280   0.00
0.28571430  0.00000000  0.28571430   0.00
0.28754577  0.00000000  0.28754577   0.00
0.28937730  0.00000000  0.28937730   0.00
0.29120880  0.00000000  0.29120880   0.00
0.29304031  0.00000000  0.29304031   0.00
0.29487178  0.00000000  0.29487178   0.00
0.29670331  0.00000000  0.29670331   0.00
0.29853481  0.00000000  0.29853481   0.00
0.30036631  0.00000000  0.30036631   0.00
0.30219778  0.00000000  0.30219778   0.00
0.30402932  0.00000000  0.30402932   0.00
0.30586082  0.00000000  0.30586082   0.00
0.30769232  0.00000000  0.30769232   0.00
0.30952379  0.00000000  0.30952379   0.00
0.31135532  0.00000000  0.31135532   0.00
0.31318682  0.00000000  0.31318682   0.00
0.31501833  0.00000000  0.31501833   0.00
0.31684983  0.00000000  0.31684983   0.00
0.31868133  0.00000000  0.31868133   0.00
0.32051283  0.00000000  0.32051283   0.00
0.32234433  0.00000000  0.32234433   0.00
0.32417583  0.00000000  0.32417583   0.00
0.32600734  0.00000000  0.32600734   0.00
0.32783884  0.00000000  0.32783884   0.00
0.32967034  0.00000000  0.32967034   0.00
0.33150184  0.00000000  0.33150184   0.00
0.33333334  0.00000000  0.33333334   0.00
0.33516484  0.00000000  0.33516484   0.00
0.33699635  0.00000000  0.33699635   0.00
0.33882785  0.00000000  0.33882785   0.00
0.34065935  0.00000000  0.34065935   0.00
0.34249085  0.00000000  0.34249085   0.00
0.34432235  0.00000000  0.34432235   0.00
0.34615386  0.00000000  0.34615386   0.00
0.34798536  0.00000000  0.34798536   0.00
0.34981686  0.00000000  0.34981686   0.00
0.35164836  0.00000000  0.35164836   0.00
0.35347986  0.00000000  0.35347986   0.00
0.35531133  0.00000000  0.35531133   0.00
0.35714287  0.00000000  0.35714287   0.00
0.35897437  0.00000000  0.35897437   0.00
0.36080587  0.00000000  0.36080587   0.00
0.36263740  0.00000000  0.36263740   0.00
0.36446887  0.00000000  0.36446887   0.00
0.36630037  0.00000000  0.36630037   0.00
0.36813188  0.00000000  0.36813188   0.00
0.36996335  0.00000000  0.36996335   0.00
0.37179488  0.00000000  0.37179488   0.00
0.37362638  0.00000000  0.37362638   0.00
0.37545788  0.00000000  0.37545788   0.00
0.37728941  0.00000000  0.37728941   0.00
0.37912089  0.00000000  0.37912089   0.00
0.38095239  0.00000000  0.38095239   0.00
0.38278389  0.00000000  0.38278389   0.00
0.38461536  0.00000000  0.38461536   0.00
0.38644689  0.00000000  0.38644689   0.00
0.38827839  0.00000000  0.38827839   0.00
0.39010990  0.00000000  0.39010990   0.00
0.39194143  0.00000000  0.39194143   0.00
0.39377290  0.00000000  0.39377290   0.00
0.39560440  0.00000000  0.39560440   0.00
0.39743590  0.00000000  0.39743590   0.00
0.39926738  0.00000000  0.39926738   0.00
0.40109891  0.00000000  0.40109891   0.00
0.40293041  0.00000000  0.40293041   0.00
0.40476191  0.00000000  0.40476191   0.00
0.40659344  0.00000000  0.40659344   0.00
0.40842491  0.00000000  0.40842491   0.00
0.41025642  0.00000000  0.41025642   0.00
0.41208792  0.00000000  0.41208792   0.00
0.41391939  0.00000000  0.41391939   0.00
0.41575092  0.00000000  0.41575092   0.00
0.41758242  0.00000000  0.41758242   0.00
0.41941392  0.00000000  0.41941392   0.00
0.42124546  0.00000000  0.42124546   0.00
0.42307693  0.00000000  0.42307693   0.00
0.42490843  0.00000000  0.42490843   0.00
0.42673993  0.00000000  0.42673993   0.00
0.42857140  0.00000000  0.42857140   0.00
0.43040296  0.00000000  0.43040296   0.00
0.43223444  0.00000000  0.43223444   0.00
0.43406594  0.00000000  0.43406594   0.00
0.43589747  0.00000000  0.43589747   0.00
0.43772897  0.00000000  0.43772897   0.00
0.43956044  0.00000000  0.43956044   0.00
0.44139194  0.00000000  0.44139194   0.00
0.44322342  0.00000000  0.44322342   0.00
0.44505498  0.00000000  0.44505498   0.00
0.44688645  0.00000000  0.44688645   0.00
0.44871795  0.00000000  0.44871795   0.00
0.45054948  0.00000000  0.45054948   0.00
0.45238099  0.00000000  0.45238099   0.00
0.45421246  0.00000000  0.45421246   0.00
0.45604396  0.00000000  0.45604396   0.00
0.45787546  0.00000000  0.45787546   0.00
0.45970699  0.00000000  0.45970699   0.00
0.46153846  0.00000000  0.46153846   0.00
0.46336997  0.00000000  0.46336997   0.00
0.46520150  0.00000000  0.46520150   0.00
0.46703300  0.00000000  0.46703300   0.00
0.46886447  0.00000000  0.46886447   0.00
0.47069597  0.00000000  0.47069597   0.00
0.47252747  0.00000000  0.47252747   0.00
0.47435901  0.00000000  0.47435901   0.00
0.47619048  0.00000000  0.47619048   0.00
0.47802198  0.00000000  0.47802198   0.00
0.47985351  0.00000000  0.47985351   0.00
0.48168501  0.00000000  0.48168501   0.00
0.48351648  0.00000000  0.48351648   0.00
0.48534799  0.00000000  0.48534799   0.00
0.48717949  0.00000000  0.48717949   0.00
0.48901102  0.00000000  0.48901102   0.00
0.49084249  0.00000000  0.49084249   0.00
0.49267399  0.00000000  0.49267399   0.00
0.49450552  0.00000000  0.49450552   0.00
0.49633703  0.00000000  0.49633703   0.00
0.49816850  0.00000000  0.49816850   0.00
0.50000000  0.00000000  0.50000000   0.00
0.49930555  0.00208333  0.50138891   0.00
0.49861112  0.00416667  0.50277776   0.00
0.49791667  0.00625000  0.50416666   0.00
0.49722221  0.00833333  0.50555557   0.00
0.49652779  0.01041667  0.50694442   0.00
0.49583334  0.01250000  0.50833333   0.00
0.49513888  0.01458333  0.50972223   0.00
0.49444443  0.01666667  0.51111114   0.00
0.49375001  0.01875000  0.51249999   0.00
0.49305555  0.02083333  0.51388890   0.00
0.49236110  0.02291667  0.51527780   0.00
0.49166667  0.02500000  0.51666665   0.00
0.49097222  0.02708333  0.51805556   0.00
0.49027777  0.02916667  0.51944447   0.00
0.48958334  0.03125000  0.52083331   0.00
0.48888889  0.03333333  0.52222222   0.00
0.48819444  0.03541667  0.52361113   0.00
0.48750001  0.03750000  0.52499998   0.00
0.48680556  0.03958333  0.52638888   0.00
0.48611110  0.04166666  0.52777779   0.00
0.48541668  0.04375000  0.52916664   0.00
0.48472223  0.04583333  0.53055555   0.00
0.48402777  0.04791667  0.53194445   0.00
0.48333335  0.05000000  0.53333330   0.00
0.48263890  0.05208334  0.53472221   0.00
0.48194444  0.05416666  0.53611112   0.00
0.48124999  0.05625000  0.53750002   0.00
0.48055556  0.05833333  0.53888887   0.00
0.47986111  0.06041666  0.54027778   0.00
0.47916666  0.06250000  0.54166669   0.00
0.47847223  0.06458333  0.54305553   0.00
0.47777778  0.06666666  0.54444444   0.00
0.47708333  0.06875000  0.54583335   0.00
0.47638890  0.07083333  0.54722220   0.00
0.47569445  0.07291666  0.54861110   0.00
0.47499999  0.07500000  0.55000001   0.00
0.47430557  0.07708333  0.55138886   0.00
0.47361112  0.07916667  0.55277777   0.00
0.47291666  0.08125000  0.55416667   0.00
0.47222221  0.08333333  0.55555558   0.00
0.47152779  0.08541666  0.55694443   0.00
0.47083333  0.08750000  0.55833334   0.00
0.47013888  0.08958333  0.55972224   0.00
0.46944445  0.09166667  0.56111109   0.00
0.46875000  0.09375000  0.56250000   0.00
0.46805555  0.09583333  0.56388891   0.00
0.46736112  0.09791666  0.56527776   0.00
0.46666667  0.10000000  0.56666666   0.00
0.46597221  0.10208333  0.56805557   0.00
0.46527779  0.10416667  0.56944442   0.00
0.46458334  0.10625000  0.57083333   0.00
0.46388888  0.10833333  0.57222223   0.00
0.46319443  0.11041667  0.57361114   0.00
0.46250001  0.11250000  0.57499999   0.00
0.46180555  0.11458334  0.57638890   0.00
0.46111113  0.11666667  0.57777774   0.00
0.46041667  0.11875000  0.57916665   0.00
0.45972222  0.12083333  0.58055556   0.00
0.45902777  0.12291667  0.58194447   0.00
0.45833334  0.12500000  0.58333331   0.00
0.45763889  0.12708333  0.58472222   0.00
0.45694444  0.12916666  0.58611113   0.00
0.45625001  0.13124999  0.58749998   0.00
0.45555556  0.13333333  0.58888888   0.00
0.45486110  0.13541666  0.59027779   0.00
0.45416665  0.13750000  0.59166670   0.00
0.45347223  0.13958333  0.59305555   0.00
0.45277777  0.14166667  0.59444445   0.00
0.45208335  0.14375000  0.59583330   0.00
0.45138890  0.14583333  0.59722221   0.00
0.45069444  0.14791666  0.59861112   0.00
0.44999999  0.14999999  0.60000002   0.00
0.44930556  0.15208334  0.60138887   0.00
0.44861111  0.15416667  0.60277778   0.00
0.44791666  0.15624999  0.60416669   0.00
0.44722223  0.15833333  0.60555553   0.00
0.44652778  0.16041666  0.60694444   0.00
0.44583333  0.16250001  0.60833335   0.00
0.44513890  0.16458333  0.60972220   0.00
0.44444445  0.16666666  0.61111110   0.00
0.44374999  0.16875000  0.61250001   0.00
0.44305557  0.17083332  0.61388886   0.00
0.44236112  0.17291667  0.61527777   0.00
0.44166666  0.17500000  0.61666667   0.00
0.44097221  0.17708334  0.61805558   0.00
0.44027779  0.17916666  0.61944443   0.00
0.43958333  0.18124999  0.62083334   0.00
0.43888888  0.18333334  0.62222224   0.00
0.43819445  0.18541667  0.62361109   0.00
0.43750000  0.18750000  0.62500000   0.00
0.43680555  0.18958333  0.62638891   0.00
0.43611112  0.19166666  0.62777776   0.00
0.43541667  0.19374999  0.62916666   0.00
0.43472221  0.19583333  0.63055557   0.00
0.43402779  0.19791667  0.63194442   0.00
0.43333334  0.20000000  0.63333333   0.00
0.43263888  0.20208332  0.63472223   0.00
0.43194443  0.20416667  0.63611114   0.00
0.43125001  0.20625000  0.63749999   0.00
0.43055555  0.20833334  0.63888890   0.00
0.42986113  0.21041666  0.64027774   0.00
0.42916667  0.21249999  0.64166665   0.00
0.42847222  0.21458334  0.64305556   0.00
0.42777777  0.21666665  0.64444447   0.00
0.42708334  0.21875000  0.64583331   0.00
0.42638889  0.22083333  0.64722222   0.00
0.42569447  0.22291666  0.64861107   0.00
0.42500001  0.22499999  0.64999998   0.00
0.42430556  0.22708333  0.65138888   0.00
0.42361110  0.22916667  0.65277779   0.00
0.42291665  0.23124999  0.65416670   0.00
0.42222223  0.23333333  0.65555555   0.00
0.42152777  0.23541667  0.65694445   0.00
0.42083335  0.23750000  0.65833330   0.00
0.42013890  0.23958333  0.65972221   0.00
0.41944444  0.24166666  0.66111112   0.00
0.41874999  0.24375001  0.66250002   0.00
0.41805556  0.24583334  0.66388887   0.00
0.41736111  0.24791665  0.66527778   0.00
0.41666669  0.25000000  0.66666663   0.00
0.41597223  0.25208333  0.66805553   0.00
0.41527778  0.25416666  0.66944444   0.00
0.41458333  0.25624999  0.67083335   0.00
0.41388890  0.25833333  0.67222220   0.00
0.41319445  0.26041666  0.67361110   0.00
0.41249999  0.26249999  0.67500001   0.00
0.41180557  0.26458335  0.67638886   0.00
0.41111112  0.26666665  0.67777777   0.00
0.41041666  0.26874998  0.67916667   0.00
0.40972221  0.27083331  0.68055558   0.00
0.40902779  0.27291667  0.68194443   0.00
0.40833333  0.27500001  0.68333334   0.00
0.40763888  0.27708334  0.68472224   0.00
0.40694445  0.27916667  0.68611109   0.00
0.40625000  0.28124997  0.68750000   0.00
0.40555555  0.28333333  0.68888891   0.00
0.40486112  0.28541666  0.69027776   0.00
0.40416667  0.28749999  0.69166666   0.00
0.40347224  0.28958333  0.69305551   0.00
0.40277779  0.29166666  0.69444442   0.00
0.40208334  0.29375002  0.69583333   0.00
0.40138888  0.29583332  0.69722223   0.00
0.40069443  0.29791665  0.69861114   0.00
0.40000001  0.29999998  0.69999999   0.00
0.39930555  0.30208331  0.70138890   0.00
0.39861113  0.30416667  0.70277774   0.00
0.39791667  0.30625001  0.70416665   0.00
0.39722222  0.30833334  0.70555556   0.00
0.39652777  0.31041664  0.70694447   0.00
0.39583331  0.31249997  0.70833337   0.00
0.39513889  0.31458333  0.70972222   0.00
0.39444447  0.31666666  0.71111107   0.00
0.39375001  0.31874999  0.71249998   0.00
0.39305556  0.32083333  0.71388888   0.00
0.39236110  0.32291666  0.71527779   0.00
0.39166668  0.32500002  0.71666664   0.00
0.39097223  0.32708332  0.71805555   0.00
0.39027777  0.32916665  0.71944445   0.00
0.38958335  0.33124998  0.72083330   0.00
0.38888890  0.33333331  0.72222221   0.00
0.38819444  0.33541667  0.72361112   0.00
0.38749999  0.33750001  0.72500002   0.00
0.38680556  0.33958334  0.72638887   0.00
0.38611111  0.34166664  0.72777778   0.00
0.38541666  0.34375000  0.72916669   0.00
0.38472223  0.34583333  0.73055553   0.00
0.38402778  0.34791666  0.73194444   0.00
0.38333333  0.34999999  0.73333335   0.00
0.38263890  0.35208333  0.73472220   0.00
0.38194445  0.35416669  0.73611110   0.00
0.38124999  0.35624999  0.73750001   0.00
0.38055557  0.35833332  0.73888886   0.00
0.37986112  0.36041665  0.74027777   0.00
0.37916666  0.36249998  0.74166667   0.00
0.37847221  0.36458334  0.74305558   0.00
0.37777779  0.36666667  0.74444443   0.00
0.37708333  0.36875001  0.74583334   0.00
0.37638891  0.37083334  0.74722219   0.00
0.37569445  0.37291664  0.74861109   0.00
0.37500000  0.37500000  0.75000000   0.00
0.37394068  0.37394068  0.74788135   0.00
0.37288135  0.37288135  0.74576271   0.00
0.37182203  0.37182203  0.74364406   0.00
0.37076271  0.37076271  0.74152541   0.00
0.36970338  0.36970338  0.73940676   0.00
0.36864406  0.36864406  0.73728812   0.00
0.36758474  0.36758474  0.73516947   0.00
0.36652541  0.36652541  0.73305082   0.00
0.36546609  0.36546609  0.73093218   0.00
0.36440676  0.36440676  0.72881353   0.00
0.36334747  0.36334747  0.72669494   0.00
0.36228815  0.36228815  0.72457629   0.00
0.36122882  0.36122882  0.72245765   0.00
0.36016950  0.36016950  0.72033900   0.00
0.35911018  0.35911018  0.71822035   0.00
0.35805085  0.35805085  0.71610171   0.00
0.35699153  0.35699153  0.71398306   0.00
0.35593221  0.35593221  0.71186441   0.00
0.35487288  0.35487288  0.70974576   0.00
0.35381356  0.35381356  0.70762712   0.00
0.35275424  0.35275424  0.70550847   0.00
0.35169491  0.35169491  0.70338982   0.00
0.35063559  0.35063559  0.70127118   0.00
0.34957626  0.34957626  0.69915253   0.00
0.34851694  0.34851694  0.69703388   0.00
0.34745762  0.34745762  0.69491524   0.00
0.34639829  0.34639829  0.69279659   0.00
0.34533897  0.34533897  0.69067794   0.00
0.34427965  0.34427965  0.68855929   0.00
0.34322035  0.34322035  0.68644071   0.00
0.34216103  0.34216103  0.68432206   0.00
0.34110171  0.34110171  0.68220341   0.00
0.34004238  0.34004238  0.68008476   0.00
0.33898306  0.33898306  0.67796612   0.00
0.33792374  0.33792374  0.67584747   0.00
0.33686441  0.33686441  0.67372882   0.00
0.33580509  0.33580509  0.67161018   0.00
0.33474576  0.33474576  0.66949153   0.00
0.33368644  0.33368644  0.66737288   0.00
0.33262712  0.33262712  0.66525424   0.00
0.33156779  0.33156779  0.66313559   0.00
0.33050847  0.33050847  0.66101694   0.00
0.32944915  0.32944915  0.65889829   0.00
0.32838982  0.32838982  0.65677965   0.00
0.32733050  0.32733050  0.65466100   0.00
0.32627118  0.32627118  0.65254235   0.00
0.32521185  0.32521185  0.65042371   0.00
0.32415253  0.32415253  0.64830506   0.00
0.32309324  0.32309324  0.64618647   0.00
0.32203391  0.32203391  0.64406782   0.00
0.32097459  0.32097459  0.64194918   0.00
0.31991526  0.31991526  0.63983053   0.00
0.31885594  0.31885594  0.63771188   0.00
0.31779662  0.31779662  0.63559324   0.00
0.31673729  0.31673729  0.63347459   0.00
0.31567797  0.31567797  0.63135594   0.00
0.31461865  0.31461865  0.62923729   0.00
0.31355932  0.31355932  0.62711865   0.00
0.31250000  0.31250000  0.62500000   0.00
0.31144068  0.31144068  0.62288135   0.00
0.31038135  0.31038135  0.62076271   0.00
0.30932203  0.30932203  0.61864406   0.00
0.30826271  0.30826271  0.61652541   0.00
0.30720338  0.30720338  0.61440676   0.00
0.30614406  0.30614406  0.61228812   0.00
0.30508474  0.30508474  0.61016947   0.00
0.30402541  0.30402541  0.60805082   0.00
0.30296612  0.30296612  0.60593224   0.00
0.30190676  0.30190676  0.60381353   0.00
0.30084747  0.30084747  0.60169494   0.00
0.29978815  0.29978815  0.59957629   0.00
0.29872882  0.29872882  0.59745765   0.00
0.29766950  0.29766950  0.59533900   0.00
0.29661018  0.29661018  0.59322035   0.00
0.29555085  0.29555085  0.59110171   0.00
0.29449153  0.29449153  0.58898306   0.00
0.29343221  0.29343221  0.58686441   0.00
0.29237288  0.29237288  0.58474576   0.00
0.29131356  0.29131356  0.58262712   0.00
0.29025424  0.29025424  0.58050847   0.00
0.28919491  0.28919491  0.57838982   0.00
0.28813559  0.28813559  0.57627118   0.00
0.28707626  0.28707626  0.57415253   0.00
0.28601694  0.28601694  0.57203388   0.00
0.28495762  0.28495762  0.56991524   0.00
0.28389829  0.28389829  0.56779659   0.00
0.28283900  0.28283900  0.56567800   0.00
0.28177965  0.28177965  0.56355929   0.00
0.28072035  0.28072035  0.56144071   0.00
0.27966100  0.27966100  0.55932200   0.00
0.27860171  0.27860171  0.55720341   0.00
0.27754235  0.27754235  0.55508471   0.00
0.27648306  0.27648306  0.55296612   0.00
0.27542371  0.27542371  0.55084741   0.00
0.27436441  0.27436441  0.54872882   0.00
0.27330509  0.27330509  0.54661018   0.00
0.27224576  0.27224576  0.54449153   0.00
0.27118644  0.27118644  0.54237288   0.00
0.27012712  0.27012712  0.54025424   0.00
0.26906779  0.26906779  0.53813559   0.00
0.26800847  0.26800847  0.53601694   0.00
0.26694915  0.26694915  0.53389829   0.00
0.26588982  0.26588982  0.53177965   0.00
0.26483050  0.26483050  0.52966100   0.00
0.26377118  0.26377118  0.52754235   0.00
0.26271188  0.26271188  0.52542377   0.00
0.26165253  0.26165253  0.52330506   0.00
0.26059324  0.26059324  0.52118647   0.00
0.25953388  0.25953388  0.51906776   0.00
0.25847459  0.25847459  0.51694918   0.00
0.25741524  0.25741524  0.51483047   0.00
0.25635594  0.25635594  0.51271188   0.00
0.25529662  0.25529662  0.51059324   0.00
0.25423729  0.25423729  0.50847459   0.00
0.25317797  0.25317797  0.50635594   0.00
0.25211865  0.25211865  0.50423729   0.00
0.25105932  0.25105932  0.50211865   0.00
0.25000000  0.25000000  0.50000000   0.00
0.24894068  0.24894068  0.49788135   0.00
0.24788135  0.24788135  0.49576271   0.00
0.24682203  0.24682203  0.49364406   0.00
0.24576271  0.24576271  0.49152541   0.00
0.24470338  0.24470338  0.48940676   0.00
0.24364407  0.24364407  0.48728815   0.00
0.24258474  0.24258474  0.48516947   0.00
0.24152543  0.24152543  0.48305085   0.00
0.24046610  0.24046610  0.48093221   0.00
0.23940678  0.23940678  0.47881356   0.00
0.23834746  0.23834746  0.47669491   0.00
0.23728815  0.23728815  0.47457629   0.00
0.23622881  0.23622881  0.47245762   0.00
0.23516949  0.23516949  0.47033897   0.00
0.23411018  0.23411018  0.46822035   0.00
0.23305085  0.23305085  0.46610171   0.00
0.23199151  0.23199151  0.46398303   0.00
0.23093221  0.23093221  0.46186441   0.00
0.22987288  0.22987288  0.45974576   0.00
0.22881356  0.22881356  0.45762712   0.00
0.22775424  0.22775424  0.45550847   0.00
0.22669491  0.22669491  0.45338982   0.00
0.22563559  0.22563559  0.45127118   0.00
0.22457628  0.22457628  0.44915256   0.00
0.22351694  0.22351694  0.44703388   0.00
0.22245762  0.22245762  0.44491524   0.00
0.22139831  0.22139831  0.44279662   0.00
0.22033899  0.22033899  0.44067797   0.00
0.21927965  0.21927965  0.43855929   0.00
0.21822034  0.21822034  0.43644068   0.00
0.21716101  0.21716101  0.43432203   0.00
0.21610171  0.21610171  0.43220341   0.00
0.21504237  0.21504237  0.43008474   0.00
0.21398304  0.21398304  0.42796609   0.00
0.21292374  0.21292374  0.42584747   0.00
0.21186441  0.21186441  0.42372882   0.00
0.21080507  0.21080507  0.42161015   0.00
0.20974576  0.20974576  0.41949153   0.00
0.20868644  0.20868644  0.41737288   0.00
0.20762712  0.20762712  0.41525424   0.00
0.20656779  0.20656779  0.41313559   0.00
0.20550847  0.20550847  0.41101694   0.00
0.20444915  0.20444915  0.40889829   0.00
0.20338984  0.20338984  0.40677968   0.00
0.20233051  0.20233051  0.40466103   0.00
0.20127118  0.20127118  0.40254235   0.00
0.20021187  0.20021187  0.40042374   0.00
0.19915254  0.19915254  0.39830509   0.00
0.19809322  0.19809322  0.39618644   0.00
0.19703390  0.19703390  0.39406779   0.00
0.19597457  0.19597457  0.39194915   0.00
0.19491525  0.19491525  0.38983050   0.00
0.19385594  0.19385594  0.38771188   0.00
0.19279660  0.19279660  0.38559321   0.00
0.19173728  0.19173728  0.38347456   0.00
0.19067797  0.19067797  0.38135594   0.00
0.18961865  0.18961865  0.37923729   0.00
0.18855931  0.18855931  0.37711862   0.00
0.18750000  0.18750000  0.37500000   0.00
0.18644068  0.18644068  0.37288135   0.00
0.18538135  0.18538135  0.37076271   0.00
0.18432203  0.18432203  0.36864406   0.00
0.18326271  0.18326271  0.36652541   0.00
0.18220338  0.18220338  0.36440676   0.00
0.18114407  0.18114407  0.36228815   0.00
0.18008474  0.18008474  0.36016947   0.00
0.17902541  0.17902541  0.35805082   0.00
0.17796610  0.17796610  0.35593221   0.00
0.17690678  0.17690678  0.35381356   0.00
0.17584744  0.17584744  0.35169488   0.00
0.17478813  0.17478813  0.34957626   0.00
0.17372881  0.17372881  0.34745762   0.00
0.17266950  0.17266950  0.34533900   0.00
0.17161018  0.17161018  0.34322035   0.00
0.17055084  0.17055084  0.34110168   0.00
0.16949153  0.16949153  0.33898306   0.00
0.16843221  0.16843221  0.33686441   0.00
0.16737288  0.16737288  0.33474576   0.00
0.16631356  0.16631356  0.33262712   0.00
0.16525424  0.16525424  0.33050847   0.00
0.16419491  0.16419491  0.32838982   0.00
0.16313560  0.16313560  0.32627121   0.00
0.16207626  0.16207626  0.32415253   0.00
0.16101694  0.16101694  0.32203388   0.00
0.15995763  0.15995763  0.31991526   0.00
0.15889831  0.15889831  0.31779662   0.00
0.15783897  0.15783897  0.31567794   0.00
0.15677966  0.15677966  0.31355932   0.00
0.15572034  0.15572034  0.31144068   0.00
0.15466101  0.15466101  0.30932203   0.00
0.15360169  0.15360169  0.30720338   0.00
0.15254237  0.15254237  0.30508474   0.00
0.15148304  0.15148304  0.30296609   0.00
0.15042374  0.15042374  0.30084747   0.00
0.14936440  0.14936440  0.29872879   0.00
0.14830507  0.14830507  0.29661015   0.00
0.14724576  0.14724576  0.29449153   0.00
0.14618644  0.14618644  0.29237288   0.00
0.14512710  0.14512710  0.29025421   0.00
0.14406779  0.14406779  0.28813559   0.00
0.14300847  0.14300847  0.28601694   0.00
0.14194916  0.14194916  0.28389832   0.00
0.14088982  0.14088982  0.28177965   0.00
0.13983050  0.13983050  0.27966100   0.00
0.13877119  0.13877119  0.27754238   0.00
0.13771187  0.13771187  0.27542374   0.00
0.13665254  0.13665254  0.27330509   0.00
0.13559322  0.13559322  0.27118644   0.00
0.13453390  0.13453390  0.26906779   0.00
0.13347457  0.13347457  0.26694915   0.00
0.13241526  0.13241526  0.26483053   0.00