!
!  Lattice vectors of simulation cell.
!  in order  a(x)  a(y)  a(z)
!            b(x)  b(y)  b(z)
!            c(x)  c(y)  c(z)
!
!  N.B. These are the vectors of the *primitive* rhombohedral
!  cell of GaAs in the diamond structure.
%block lattice_cart
2.8311897 2.8311897 0.0 
2.8311897 0.0       2.8311897
0.0       2.8311897 2.8311897
%endblock lattice_cart
!
! Atomic co-ordinates for each species.
! These are in fractional co-ordinates wrt to the cell.
!
%block positions_frac
Ga 0.00 0.00 0.00
As 0.25 0.25 0.25
%endblock positions_frac
!
! Analyse structure to determine symmetry
!
symmetry_generate
!
! Choose which pseudopotentials to use
! Either specify external files, or omit to generate a pseudopotential
!
%block species_pot

Ga  Ga_00.recpot
As  As_00.recpot

%endblock species_pot
!
! Specify M-P grid dimensions for electron wavevectors (K-points)
! equivalent to 0.01 1/A k-spacing
kpoint_mp_grid 31 31 31
!
! Specify a path through the Brillouin Zone to compute the band structure.
!
%block bs_kpoint_path 
0.5 0.25 0.75    ! W
0.5 0.5 0.5      ! L
0.0 0.0  0.0     ! Gamma
0.5 0.0 0.5      ! X
0.5 0.25 0.75    ! W
0.375 0.375 0.75 ! K
%endblock bs_kpoint_path 