CdTe (ICSD, 295K, Rabadanov 2001)       
   6.48270000000000     
     0.5000000000000000    0.5000000000000000    0.0000000000000000
     0.5000000000000000    0.0000000000000000   -0.5000000000000000
     0.0000000000000000    0.5000000000000000   -0.5000000000000000
   Cd   Te
     1     1
Direct
  0.0000000000000000  0.0000000000000000  0.0000000000000000
  0.2500000000000000  0.2500000000000000  0.2500000000000000
 
  0.00000000E+00  0.00000000E+00  0.00000000E+00
  0.00000000E+00  0.00000000E+00  0.00000000E+00
