Automatically generated mesh SCF: 51 to ignore. Kroute: 130,5.4353, 5.4353,6.646963 , GXMGZ
      601
Reciprocal lattice
    0.00000000000000    0.00000000000000    0.00000000000000             1
    0.16666666666667    0.00000000000000    0.00000000000000             4
    0.33333333333333    0.00000000000000    0.00000000000000             4
    0.50000000000000    0.00000000000000    0.00000000000000             4
    0.16666666666667    0.16666666666667    0.00000000000000             2
    0.33333333333333    0.16666666666667    0.00000000000000             4
    0.50000000000000    0.16666666666667    0.00000000000000             4
   -0.33333333333333    0.16666666666667    0.00000000000000             2
   -0.16666666666667    0.16666666666667    0.00000000000000             2
    0.16666666666667    0.33333333333333    0.00000000000000             4
    0.33333333333333    0.33333333333333    0.00000000000000             2
    0.50000000000000    0.33333333333333   -0.00000000000000             4
   -0.33333333333333    0.33333333333333    0.00000000000000             2
   -0.16666666666667    0.33333333333333    0.00000000000000             2
    0.16666666666667    0.50000000000000    0.00000000000000             4
    0.33333333333333    0.50000000000000   -0.00000000000000             4
    0.50000000000000    0.50000000000000    0.00000000000000             2
    0.00000000000000    0.00000000000000    0.25000000000000             2
    0.16666666666667    0.00000000000000    0.25000000000000             4
    0.33333333333333    0.00000000000000    0.25000000000000             4
    0.50000000000000    0.00000000000000    0.25000000000000             4
   -0.33333333333333    0.00000000000000    0.25000000000000             4
   -0.16666666666667    0.00000000000000    0.25000000000000             4
    0.16666666666667    0.16666666666667    0.25000000000000             2
    0.33333333333333    0.16666666666667    0.25000000000000             2
    0.50000000000000    0.16666666666667    0.25000000000000             4
   -0.33333333333333    0.16666666666667    0.25000000000000             2
   -0.16666666666667    0.16666666666667    0.25000000000000             4
    0.16666666666667    0.33333333333333    0.25000000000000             2
    0.33333333333333    0.33333333333333    0.25000000000000             2
    0.50000000000000    0.33333333333333    0.25000000000000             4
   -0.33333333333333    0.33333333333333    0.25000000000000             4
   -0.16666666666667    0.33333333333333    0.25000000000000             2
    0.16666666666667    0.50000000000000    0.25000000000000             4
    0.33333333333333    0.50000000000000    0.25000000000000             4
    0.50000000000000    0.50000000000000    0.25000000000000             2
    0.16666666666667   -0.33333333333333    0.25000000000000             2
   -0.33333333333333   -0.33333333333333    0.25000000000000             2
   -0.16666666666667   -0.33333333333333    0.25000000000000             2
    0.33333333333333   -0.16666666666667    0.25000000000000             2
   -0.33333333333333   -0.16666666666667    0.25000000000000             2
   -0.16666666666667   -0.16666666666667    0.25000000000000             2
    0.00000000000000    0.00000000000000    0.50000000000000             1
    0.16666666666667    0.00000000000000    0.50000000000000             4
    0.33333333333333    0.00000000000000    0.50000000000000             4
    0.16666666666667    0.16666666666667    0.50000000000000             2
   -0.33333333333333    0.16666666666667    0.50000000000000             2
   -0.16666666666667    0.16666666666667    0.50000000000000             2
    0.33333333333333    0.33333333333333    0.50000000000000             2
   -0.33333333333333    0.33333333333333    0.50000000000000             2
   -0.16666666666667    0.33333333333333    0.50000000000000             2
0.00000000  0.00000000  0.00000000   0.00
0.00000000  0.00384615  0.00000000   0.00
0.00000000  0.00769231  0.00000000   0.00
0.00000000  0.01153846  0.00000000   0.00
0.00000000  0.01538462  0.00000000   0.00
0.00000000  0.01923077  0.00000000   0.00
0.00000000  0.02307692  0.00000000   0.00
0.00000000  0.02692308  0.00000000   0.00
0.00000000  0.03076923  0.00000000   0.00
0.00000000  0.03461539  0.00000000   0.00
0.00000000  0.03846154  0.00000000   0.00
0.00000000  0.04230769  0.00000000   0.00
0.00000000  0.04615385  0.00000000   0.00
0.00000000  0.05000000  0.00000000   0.00
0.00000000  0.05384615  0.00000000   0.00
0.00000000  0.05769231  0.00000000   0.00
0.00000000  0.06153846  0.00000000   0.00
0.00000000  0.06538462  0.00000000   0.00
0.00000000  0.06923077  0.00000000   0.00
0.00000000  0.07307693  0.00000000   0.00
0.00000000  0.07692308  0.00000000   0.00
0.00000000  0.08076923  0.00000000   0.00
0.00000000  0.08461539  0.00000000   0.00
0.00000000  0.08846154  0.00000000   0.00
0.00000000  0.09230769  0.00000000   0.00
0.00000000  0.09615385  0.00000000   0.00
0.00000000  0.10000000  0.00000000   0.00
0.00000000  0.10384616  0.00000000   0.00
0.00000000  0.10769231  0.00000000   0.00
0.00000000  0.11153846  0.00000000   0.00
0.00000000  0.11538462  0.00000000   0.00
0.00000000  0.11923077  0.00000000   0.00
0.00000000  0.12307692  0.00000000   0.00
0.00000000  0.12692308  0.00000000   0.00
0.00000000  0.13076924  0.00000000   0.00
0.00000000  0.13461539  0.00000000   0.00
0.00000000  0.13846155  0.00000000   0.00
0.00000000  0.14230770  0.00000000   0.00
0.00000000  0.14615385  0.00000000   0.00
0.00000000  0.15000001  0.00000000   0.00
0.00000000  0.15384616  0.00000000   0.00
0.00000000  0.15769231  0.00000000   0.00
0.00000000  0.16153847  0.00000000   0.00
0.00000000  0.16538462  0.00000000   0.00
0.00000000  0.16923077  0.00000000   0.00
0.00000000  0.17307693  0.00000000   0.00
0.00000000  0.17692308  0.00000000   0.00
0.00000000  0.18076923  0.00000000   0.00
0.00000000  0.18461539  0.00000000   0.00
0.00000000  0.18846154  0.00000000   0.00
0.00000000  0.19230770  0.00000000   0.00
0.00000000  0.19615385  0.00000000   0.00
0.00000000  0.20000000  0.00000000   0.00
0.00000000  0.20384616  0.00000000   0.00
0.00000000  0.20769231  0.00000000   0.00
0.00000000  0.21153846  0.00000000   0.00
0.00000000  0.21538462  0.00000000   0.00
0.00000000  0.21923077  0.00000000   0.00
0.00000000  0.22307692  0.00000000   0.00
0.00000000  0.22692308  0.00000000   0.00
0.00000000  0.23076923  0.00000000   0.00
0.00000000  0.23461539  0.00000000   0.00
0.00000000  0.23846154  0.00000000   0.00
0.00000000  0.24230769  0.00000000   0.00
0.00000000  0.24615385  0.00000000   0.00
0.00000000  0.25000000  0.00000000   0.00
0.00000000  0.25384617  0.00000000   0.00
0.00000000  0.25769231  0.00000000   0.00
0.00000000  0.26153848  0.00000000   0.00
0.00000000  0.26538461  0.00000000   0.00
0.00000000  0.26923078  0.00000000   0.00
0.00000000  0.27307692  0.00000000   0.00
0.00000000  0.27692309  0.00000000   0.00
0.00000000  0.28076923  0.00000000   0.00
0.00000000  0.28461540  0.00000000   0.00
0.00000000  0.28846154  0.00000000   0.00
0.00000000  0.29230770  0.00000000   0.00
0.00000000  0.29615384  0.00000000   0.00
0.00000000  0.30000001  0.00000000   0.00
0.00000000  0.30384615  0.00000000   0.00
0.00000000  0.30769232  0.00000000   0.00
0.00000000  0.31153846  0.00000000   0.00
0.00000000  0.31538463  0.00000000   0.00
0.00000000  0.31923077  0.00000000   0.00
0.00000000  0.32307693  0.00000000   0.00
0.00000000  0.32692307  0.00000000   0.00
0.00000000  0.33076924  0.00000000   0.00
0.00000000  0.33461538  0.00000000   0.00
0.00000000  0.33846155  0.00000000   0.00
0.00000000  0.34230769  0.00000000   0.00
0.00000000  0.34615386  0.00000000   0.00
0.00000000  0.34999999  0.00000000   0.00
0.00000000  0.35384616  0.00000000   0.00
0.00000000  0.35769230  0.00000000   0.00
0.00000000  0.36153847  0.00000000   0.00
0.00000000  0.36538461  0.00000000   0.00
0.00000000  0.36923078  0.00000000   0.00
0.00000000  0.37307692  0.00000000   0.00
0.00000000  0.37692308  0.00000000   0.00
0.00000000  0.38076922  0.00000000   0.00
0.00000000  0.38461539  0.00000000   0.00
0.00000000  0.38846153  0.00000000   0.00
0.00000000  0.39230770  0.00000000   0.00
0.00000000  0.39615384  0.00000000   0.00
0.00000000  0.40000001  0.00000000   0.00
0.00000000  0.40384614  0.00000000   0.00
0.00000000  0.40769231  0.00000000   0.00
0.00000000  0.41153845  0.00000000   0.00
0.00000000  0.41538462  0.00000000   0.00
0.00000000  0.41923076  0.00000000   0.00
0.00000000  0.42307693  0.00000000   0.00
0.00000000  0.42692307  0.00000000   0.00
0.00000000  0.43076923  0.00000000   0.00
0.00000000  0.43461537  0.00000000   0.00
0.00000000  0.43846154  0.00000000   0.00
0.00000000  0.44230768  0.00000000   0.00
0.00000000  0.44615385  0.00000000   0.00
0.00000000  0.44999999  0.00000000   0.00
0.00000000  0.45384616  0.00000000   0.00
0.00000000  0.45769230  0.00000000   0.00
0.00000000  0.46153846  0.00000000   0.00
0.00000000  0.46538460  0.00000000   0.00
0.00000000  0.46923077  0.00000000   0.00
0.00000000  0.47307691  0.00000000   0.00
0.00000000  0.47692308  0.00000000   0.00
0.00000000  0.48076922  0.00000000   0.00
0.00000000  0.48461539  0.00000000   0.00
0.00000000  0.48846152  0.00000000   0.00
0.00000000  0.49230769  0.00000000   0.00
0.00000000  0.49615386  0.00000000   0.00
0.00000000  0.50000000  0.00000000   0.00
0.00384615  0.50000000  0.00000000   0.00
0.00769231  0.50000000  0.00000000   0.00
0.01153846  0.50000000  0.00000000   0.00
0.01538462  0.50000000  0.00000000   0.00
0.01923077  0.50000000  0.00000000   0.00
0.02307692  0.50000000  0.00000000   0.00
0.02692308  0.50000000  0.00000000   0.00
0.03076923  0.50000000  0.00000000   0.00
0.03461539  0.50000000  0.00000000   0.00
0.03846154  0.50000000  0.00000000   0.00
0.04230769  0.50000000  0.00000000   0.00
0.04615385  0.50000000  0.00000000   0.00
0.05000000  0.50000000  0.00000000   0.00
0.05384615  0.50000000  0.00000000   0.00
0.05769231  0.50000000  0.00000000   0.00
0.06153846  0.50000000  0.00000000   0.00
0.06538462  0.50000000  0.00000000   0.00
0.06923077  0.50000000  0.00000000   0.00
0.07307693  0.50000000  0.00000000   0.00
0.07692308  0.50000000  0.00000000   0.00
0.08076923  0.50000000  0.00000000   0.00
0.08461539  0.50000000  0.00000000   0.00
0.08846154  0.50000000  0.00000000   0.00
0.09230769  0.50000000  0.00000000   0.00
0.09615385  0.50000000  0.00000000   0.00
0.10000000  0.50000000  0.00000000   0.00
0.10384616  0.50000000  0.00000000   0.00
0.10769231  0.50000000  0.00000000   0.00
0.11153846  0.50000000  0.00000000   0.00
0.11538462  0.50000000  0.00000000   0.00
0.11923077  0.50000000  0.00000000   0.00
0.12307692  0.50000000  0.00000000   0.00
0.12692308  0.50000000  0.00000000   0.00
0.13076924  0.50000000  0.00000000   0.00
0.13461539  0.50000000  0.00000000   0.00
0.13846155  0.50000000  0.00000000   0.00
0.14230770  0.50000000  0.00000000   0.00
0.14615385  0.50000000  0.00000000   0.00
0.15000001  0.50000000  0.00000000   0.00
0.15384616  0.50000000  0.00000000   0.00
0.15769231  0.50000000  0.00000000   0.00
0.16153847  0.50000000  0.00000000   0.00
0.16538462  0.50000000  0.00000000   0.00
0.16923077  0.50000000  0.00000000   0.00
0.17307693  0.50000000  0.00000000   0.00
0.17692308  0.50000000  0.00000000   0.00
0.18076923  0.50000000  0.00000000   0.00
0.18461539  0.50000000  0.00000000   0.00
0.18846154  0.50000000  0.00000000   0.00
0.19230770  0.50000000  0.00000000   0.00
0.19615385  0.50000000  0.00000000   0.00
0.20000000  0.50000000  0.00000000   0.00
0.20384616  0.50000000  0.00000000   0.00
0.20769231  0.50000000  0.00000000   0.00
0.21153846  0.50000000  0.00000000   0.00
0.21538462  0.50000000  0.00000000   0.00
0.21923077  0.50000000  0.00000000   0.00
0.22307692  0.50000000  0.00000000   0.00
0.22692308  0.50000000  0.00000000   0.00
0.23076923  0.50000000  0.00000000   0.00
0.23461539  0.50000000  0.00000000   0.00
0.23846154  0.50000000  0.00000000   0.00
0.24230769  0.50000000  0.00000000   0.00
0.24615385  0.50000000  0.00000000   0.00
0.25000000  0.50000000  0.00000000   0.00
0.25384617  0.50000000  0.00000000   0.00
0.25769231  0.50000000  0.00000000   0.00
0.26153848  0.50000000  0.00000000   0.00
0.26538461  0.50000000  0.00000000   0.00
0.26923078  0.50000000  0.00000000   0.00
0.27307692  0.50000000  0.00000000   0.00
0.27692309  0.50000000  0.00000000   0.00
0.28076923  0.50000000  0.00000000   0.00
0.28461540  0.50000000  0.00000000   0.00
0.28846154  0.50000000  0.00000000   0.00
0.29230770  0.50000000  0.00000000   0.00
0.29615384  0.50000000  0.00000000   0.00
0.30000001  0.50000000  0.00000000   0.00
0.30384615  0.50000000  0.00000000   0.00
0.30769232  0.50000000  0.00000000   0.00
0.31153846  0.50000000  0.00000000   0.00
0.31538463  0.50000000  0.00000000   0.00
0.31923077  0.50000000  0.00000000   0.00
0.32307693  0.50000000  0.00000000   0.00
0.32692307  0.50000000  0.00000000   0.00
0.33076924  0.50000000  0.00000000   0.00
0.33461538  0.50000000  0.00000000   0.00
0.33846155  0.50000000  0.00000000   0.00
0.34230769  0.50000000  0.00000000   0.00
0.34615386  0.50000000  0.00000000   0.00
0.34999999  0.50000000  0.00000000   0.00
0.35384616  0.50000000  0.00000000   0.00
0.35769230  0.50000000  0.00000000   0.00
0.36153847  0.50000000  0.00000000   0.00
0.36538461  0.50000000  0.00000000   0.00
0.36923078  0.50000000  0.00000000   0.00
0.37307692  0.50000000  0.00000000   0.00
0.37692308  0.50000000  0.00000000   0.00
0.38076922  0.50000000  0.00000000   0.00
0.38461539  0.50000000  0.00000000   0.00
0.38846153  0.50000000  0.00000000   0.00
0.39230770  0.50000000  0.00000000   0.00
0.39615384  0.50000000  0.00000000   0.00
0.40000001  0.50000000  0.00000000   0.00
0.40384614  0.50000000  0.00000000   0.00
0.40769231  0.50000000  0.00000000   0.00
0.41153845  0.50000000  0.00000000   0.00
0.41538462  0.50000000  0.00000000   0.00
0.41923076  0.50000000  0.00000000   0.00
0.42307693  0.50000000  0.00000000   0.00
0.42692307  0.50000000  0.00000000   0.00
0.43076923  0.50000000  0.00000000   0.00
0.43461537  0.50000000  0.00000000   0.00
0.43846154  0.50000000  0.00000000   0.00
0.44230768  0.50000000  0.00000000   0.00
0.44615385  0.50000000  0.00000000   0.00
0.44999999  0.50000000  0.00000000   0.00
0.45384616  0.50000000  0.00000000   0.00
0.45769230  0.50000000  0.00000000   0.00
0.46153846  0.50000000  0.00000000   0.00
0.46538460  0.50000000  0.00000000   0.00
0.46923077  0.50000000  0.00000000   0.00
0.47307691  0.50000000  0.00000000   0.00
0.47692308  0.50000000  0.00000000   0.00
0.48076922  0.50000000  0.00000000   0.00
0.48461539  0.50000000  0.00000000   0.00
0.48846152  0.50000000  0.00000000   0.00
0.49230769  0.50000000  0.00000000   0.00
0.49615386  0.50000000  0.00000000   0.00
0.50000000  0.50000000  0.00000000   0.00
0.49726775  0.49726775  0.00000000   0.00
0.49453551  0.49453551  0.00000000   0.00
0.49180329  0.49180329  0.00000000   0.00
0.48907104  0.48907104  0.00000000   0.00
0.48633879  0.48633879  0.00000000   0.00
0.48360655  0.48360655  0.00000000   0.00
0.48087433  0.48087433  0.00000000   0.00
0.47814208  0.47814208  0.00000000   0.00
0.47540984  0.47540984  0.00000000   0.00
0.47267759  0.47267759  0.00000000   0.00
0.46994537  0.46994537  0.00000000   0.00
0.46721312  0.46721312  0.00000000   0.00
0.46448088  0.46448088  0.00000000   0.00
0.46174863  0.46174863  0.00000000   0.00
0.45901638  0.45901638  0.00000000   0.00
0.45628417  0.45628417  0.00000000   0.00
0.45355192  0.45355192  0.00000000   0.00
0.45081967  0.45081967  0.00000000   0.00
0.44808742  0.44808742  0.00000000   0.00
0.44535518  0.44535518  0.00000000   0.00
0.44262296  0.44262296  0.00000000   0.00
0.43989071  0.43989071  0.00000000   0.00
0.43715847  0.43715847  0.00000000   0.00
0.43442625  0.43442625  0.00000000   0.00
0.43169397  0.43169397  0.00000000   0.00
0.42896175  0.42896175  0.00000000   0.00
0.42622951  0.42622951  0.00000000   0.00
0.42349726  0.42349726  0.00000000   0.00
0.42076504  0.42076504  0.00000000   0.00
0.41803280  0.41803280  0.00000000   0.00
0.41530055  0.41530055  0.00000000   0.00
0.41256830  0.41256830  0.00000000   0.00
0.40983605  0.40983605  0.00000000   0.00
0.40710384  0.40710384  0.00000000   0.00
0.40437159  0.40437159  0.00000000   0.00
0.40163934  0.40163934  0.00000000   0.00
0.39890710  0.39890710  0.00000000   0.00
0.39617485  0.39617485  0.00000000   0.00
0.39344263  0.39344263  0.00000000   0.00
0.39071038  0.39071038  0.00000000   0.00
0.38797814  0.38797814  0.00000000   0.00
0.38524589  0.38524589  0.00000000   0.00
0.38251364  0.38251364  0.00000000   0.00
0.37978142  0.37978142  0.00000000   0.00
0.37704918  0.37704918  0.00000000   0.00
0.37431693  0.37431693  0.00000000   0.00
0.37158471  0.37158471  0.00000000   0.00
0.36885247  0.36885247  0.00000000   0.00
0.36612022  0.36612022  0.00000000   0.00
0.36338797  0.36338797  0.00000000   0.00
0.36065573  0.36065573  0.00000000   0.00
0.35792351  0.35792351  0.00000000   0.00
0.35519126  0.35519126  0.00000000   0.00
0.35245901  0.35245901  0.00000000   0.00
0.34972680  0.34972680  0.00000000   0.00
0.34699452  0.34699452  0.00000000   0.00
0.34426230  0.34426230  0.00000000   0.00
0.34153005  0.34153005  0.00000000   0.00
0.33879781  0.33879781  0.00000000   0.00
0.33606559  0.33606559  0.00000000   0.00
0.33333331  0.33333331  0.00000000   0.00
0.33060110  0.33060110  0.00000000   0.00
0.32786885  0.32786885  0.00000000   0.00
0.32513660  0.32513660  0.00000000   0.00
0.32240438  0.32240438  0.00000000   0.00
0.31967214  0.31967214  0.00000000   0.00
0.31693989  0.31693989  0.00000000   0.00
0.31420764  0.31420764  0.00000000   0.00
0.31147540  0.31147540  0.00000000   0.00
0.30874318  0.30874318  0.00000000   0.00
0.30601093  0.30601093  0.00000000   0.00
0.30327868  0.30327868  0.00000000   0.00
0.30054644  0.30054644  0.00000000   0.00
0.29781419  0.29781419  0.00000000   0.00
0.29508197  0.29508197  0.00000000   0.00
0.29234973  0.29234973  0.00000000   0.00
0.28961748  0.28961748  0.00000000   0.00
0.28688523  0.28688523  0.00000000   0.00
0.28415298  0.28415298  0.00000000   0.00
0.28142077  0.28142077  0.00000000   0.00
0.27868852  0.27868852  0.00000000   0.00
0.27595627  0.27595627  0.00000000   0.00
0.27322406  0.27322406  0.00000000   0.00
0.27049178  0.27049178  0.00000000   0.00
0.26775956  0.26775956  0.00000000   0.00
0.26502731  0.26502731  0.00000000   0.00
0.26229507  0.26229507  0.00000000   0.00
0.25956285  0.25956285  0.00000000   0.00
0.25683057  0.25683057  0.00000000   0.00
0.25409836  0.25409836  0.00000000   0.00
0.25136614  0.25136614  0.00000000   0.00
0.24863386  0.24863386  0.00000000   0.00
0.24590164  0.24590164  0.00000000   0.00
0.24316940  0.24316940  0.00000000   0.00
0.24043715  0.24043715  0.00000000   0.00
0.23770493  0.23770493  0.00000000   0.00
0.23497266  0.23497266  0.00000000   0.00
0.23224044  0.23224044  0.00000000   0.00
0.22950819  0.22950819  0.00000000   0.00
0.22677594  0.22677594  0.00000000   0.00
0.22404373  0.22404373  0.00000000   0.00
0.22131148  0.22131148  0.00000000   0.00
0.21857923  0.21857923  0.00000000   0.00
0.21584699  0.21584699  0.00000000   0.00
0.21311474  0.21311474  0.00000000   0.00
0.21038252  0.21038252  0.00000000   0.00
0.20765027  0.20765027  0.00000000   0.00
0.20491803  0.20491803  0.00000000   0.00
0.20218578  0.20218578  0.00000000   0.00
0.19945356  0.19945356  0.00000000   0.00
0.19672132  0.19672132  0.00000000   0.00
0.19398907  0.19398907  0.00000000   0.00
0.19125685  0.19125685  0.00000000   0.00
0.18852457  0.18852457  0.00000000   0.00
0.18579236  0.18579236  0.00000000   0.00
0.18306011  0.18306011  0.00000000   0.00
0.18032786  0.18032786  0.00000000   0.00
0.17759565  0.17759565  0.00000000   0.00
0.17486337  0.17486337  0.00000000   0.00
0.17213115  0.17213115  0.00000000   0.00
0.16939890  0.16939890  0.00000000   0.00
0.16666666  0.16666666  0.00000000   0.00
0.16393444  0.16393444  0.00000000   0.00
0.16120216  0.16120216  0.00000000   0.00
0.15846995  0.15846995  0.00000000   0.00
0.15573770  0.15573770  0.00000000   0.00
0.15300545  0.15300545  0.00000000   0.00
0.15027323  0.15027323  0.00000000   0.00
0.14754099  0.14754099  0.00000000   0.00
0.14480874  0.14480874  0.00000000   0.00
0.14207649  0.14207649  0.00000000   0.00
0.13934427  0.13934427  0.00000000   0.00
0.13661203  0.13661203  0.00000000   0.00
0.13387975  0.13387975  0.00000000   0.00
0.13114756  0.13114756  0.00000000   0.00
0.12841529  0.12841529  0.00000000   0.00
0.12568304  0.12568304  0.00000000   0.00
0.12295082  0.12295082  0.00000000   0.00
0.12021858  0.12021858  0.00000000   0.00
0.11748633  0.11748633  0.00000000   0.00
0.11475411  0.11475411  0.00000000   0.00
0.11202186  0.11202186  0.00000000   0.00
0.10928962  0.10928962  0.00000000   0.00
0.10655740  0.10655740  0.00000000   0.00
0.10382515  0.10382515  0.00000000   0.00
0.10109288  0.10109288  0.00000000   0.00
0.09836069  0.09836069  0.00000000   0.00
0.09562841  0.09562841  0.00000000   0.00
0.09289616  0.09289616  0.00000000   0.00
0.09016392  0.09016392  0.00000000   0.00
0.08743170  0.08743170  0.00000000   0.00
0.08469945  0.08469945  0.00000000   0.00
0.08196720  0.08196720  0.00000000   0.00
0.07923499  0.07923499  0.00000000   0.00
0.07650274  0.07650274  0.00000000   0.00
0.07377046  0.07377046  0.00000000   0.00
0.07103828  0.07103828  0.00000000   0.00
0.06830600  0.06830600  0.00000000   0.00
0.06557375  0.06557375  0.00000000   0.00
0.06284153  0.06284153  0.00000000   0.00
0.06010929  0.06010929  0.00000000   0.00
0.05737704  0.05737704  0.00000000   0.00
0.05464482  0.05464482  0.00000000   0.00
0.05191258  0.05191258  0.00000000   0.00
0.04918033  0.04918033  0.00000000   0.00
0.04644811  0.04644811  0.00000000   0.00
0.04371586  0.04371586  0.00000000   0.00
0.04098359  0.04098359  0.00000000   0.00
0.03825134  0.03825134  0.00000000   0.00
0.03551912  0.03551912  0.00000000   0.00
0.03278688  0.03278688  0.00000000   0.00
0.03005463  0.03005463  0.00000000   0.00
0.02732241  0.02732241  0.00000000   0.00
0.02459016  0.02459016  0.00000000   0.00
0.02185792  0.02185792  0.00000000   0.00
0.01912570  0.01912570  0.00000000   0.00
0.01639345  0.01639345  0.00000000   0.00
0.01366118  0.01366118  0.00000000   0.00
0.01092896  0.01092896  0.00000000   0.00
0.00819671  0.00819671  0.00000000   0.00
0.00546446  0.00546446  0.00000000   0.00
0.00273225  0.00273225  0.00000000   0.00
0.00000000  0.00000000  0.00000000   0.00
0.00000000  0.00000000  0.00471698   0.00
0.00000000  0.00000000  0.00943396   0.00
0.00000000  0.00000000  0.01415094   0.00
0.00000000  0.00000000  0.01886792   0.00
0.00000000  0.00000000  0.02358491   0.00
0.00000000  0.00000000  0.02830189   0.00
0.00000000  0.00000000  0.03301887   0.00
0.00000000  0.00000000  0.03773585   0.00
0.00000000  0.00000000  0.04245283   0.00
0.00000000  0.00000000  0.04716981   0.00
0.00000000  0.00000000  0.05188679   0.00
0.00000000  0.00000000  0.05660377   0.00
0.00000000  0.00000000  0.06132076   0.00
0.00000000  0.00000000  0.06603774   0.00
0.00000000  0.00000000  0.07075472   0.00
0.00000000  0.00000000  0.07547170   0.00
0.00000000  0.00000000  0.08018868   0.00
0.00000000  0.00000000  0.08490566   0.00
0.00000000  0.00000000  0.08962265   0.00
0.00000000  0.00000000  0.09433962   0.00
0.00000000  0.00000000  0.09905660   0.00
0.00000000  0.00000000  0.10377359   0.00
0.00000000  0.00000000  0.10849057   0.00
0.00000000  0.00000000  0.11320755   0.00
0.00000000  0.00000000  0.11792453   0.00
0.00000000  0.00000000  0.12264151   0.00
0.00000000  0.00000000  0.12735850   0.00
0.00000000  0.00000000  0.13207547   0.00
0.00000000  0.00000000  0.13679245   0.00
0.00000000  0.00000000  0.14150944   0.00
0.00000000  0.00000000  0.14622642   0.00
0.00000000  0.00000000  0.15094340   0.00
0.00000000  0.00000000  0.15566038   0.00
0.00000000  0.00000000  0.16037735   0.00
0.00000000  0.00000000  0.16509435   0.00
0.00000000  0.00000000  0.16981132   0.00
0.00000000  0.00000000  0.17452830   0.00
0.00000000  0.00000000  0.17924529   0.00
0.00000000  0.00000000  0.18396227   0.00
0.00000000  0.00000000  0.18867925   0.00
0.00000000  0.00000000  0.19339623   0.00
0.00000000  0.00000000  0.19811320   0.00
0.00000000  0.00000000  0.20283020   0.00
0.00000000  0.00000000  0.20754717   0.00
0.00000000  0.00000000  0.21226415   0.00
0.00000000  0.00000000  0.21698114   0.00
0.00000000  0.00000000  0.22169812   0.00
0.00000000  0.00000000  0.22641510   0.00
0.00000000  0.00000000  0.23113208   0.00
0.00000000  0.00000000  0.23584905   0.00
0.00000000  0.00000000  0.24056605   0.00
0.00000000  0.00000000  0.24528302   0.00
0.00000000  0.00000000  0.25000000   0.00
0.00000000  0.00000000  0.25471699   0.00
0.00000000  0.00000000  0.25943395   0.00
0.00000000  0.00000000  0.26415095   0.00
0.00000000  0.00000000  0.26886794   0.00
0.00000000  0.00000000  0.27358490   0.00
0.00000000  0.00000000  0.27830189   0.00
0.00000000  0.00000000  0.28301889   0.00
0.00000000  0.00000000  0.28773585   0.00
0.00000000  0.00000000  0.29245284   0.00
0.00000000  0.00000000  0.29716980   0.00
0.00000000  0.00000000  0.30188680   0.00
0.00000000  0.00000000  0.30660379   0.00
0.00000000  0.00000000  0.31132075   0.00
0.00000000  0.00000000  0.31603774   0.00
0.00000000  0.00000000  0.32075471   0.00
0.00000000  0.00000000  0.32547170   0.00
0.00000000  0.00000000  0.33018869   0.00
0.00000000  0.00000000  0.33490565   0.00
0.00000000  0.00000000  0.33962265   0.00
0.00000000  0.00000000  0.34433964   0.00
0.00000000  0.00000000  0.34905660   0.00
0.00000000  0.00000000  0.35377359   0.00
0.00000000  0.00000000  0.35849059   0.00
0.00000000  0.00000000  0.36320755   0.00
0.00000000  0.00000000  0.36792454   0.00
0.00000000  0.00000000  0.37264150   0.00
0.00000000  0.00000000  0.37735850   0.00
0.00000000  0.00000000  0.38207549   0.00
0.00000000  0.00000000  0.38679245   0.00
0.00000000  0.00000000  0.39150944   0.00
0.00000000  0.00000000  0.39622641   0.00
0.00000000  0.00000000  0.40094340   0.00
0.00000000  0.00000000  0.40566039   0.00
0.00000000  0.00000000  0.41037735   0.00
0.00000000  0.00000000  0.41509435   0.00
0.00000000  0.00000000  0.41981134   0.00
0.00000000  0.00000000  0.42452830   0.00
0.00000000  0.00000000  0.42924529   0.00
0.00000000  0.00000000  0.43396229   0.00
0.00000000  0.00000000  0.43867925   0.00
0.00000000  0.00000000  0.44339624   0.00
0.00000000  0.00000000  0.44811320   0.00
0.00000000  0.00000000  0.45283020   0.00
0.00000000  0.00000000  0.45754719   0.00
0.00000000  0.00000000  0.46226415   0.00
0.00000000  0.00000000  0.46698114   0.00
0.00000000  0.00000000  0.47169811   0.00
0.00000000  0.00000000  0.47641510   0.00
0.00000000  0.00000000  0.48113209   0.00
0.00000000  0.00000000  0.48584905   0.00
0.00000000  0.00000000  0.49056605   0.00
0.00000000  0.00000000  0.49528304   0.00
0.00000000  0.00000000  0.50000000   0.00
