Automatically generated mesh
     504
Reciprocal lattice
    0.00000000000000    0.00000000000000    0.00000000000000             1
    0.16666666666667    0.00000000000000    0.00000000000000             1
    0.33333333333333    0.00000000000000    0.00000000000000             1
    0.50000000000000    0.00000000000000    0.00000000000000             1
   -0.33333333333333    0.00000000000000    0.00000000000000             1
   -0.16666666666667    0.00000000000000    0.00000000000000             1
    0.00000000000000    0.16666666666667    0.00000000000000             1
    0.16666666666667    0.16666666666667    0.00000000000000             1
    0.33333333333333    0.16666666666667    0.00000000000000             1
    0.50000000000000    0.16666666666667    0.00000000000000             1
   -0.33333333333333    0.16666666666667    0.00000000000000             1
   -0.16666666666667    0.16666666666667    0.00000000000000             1
    0.00000000000000    0.33333333333333    0.00000000000000             1
    0.16666666666667    0.33333333333333    0.00000000000000             1
    0.33333333333333    0.33333333333333    0.00000000000000             1
    0.50000000000000    0.33333333333333    0.00000000000000             1
   -0.33333333333333    0.33333333333333    0.00000000000000             1
   -0.16666666666667    0.33333333333333    0.00000000000000             1
    0.00000000000000    0.50000000000000    0.00000000000000             1
    0.16666666666667    0.50000000000000    0.00000000000000             1
    0.33333333333333    0.50000000000000    0.00000000000000             1
    0.50000000000000    0.50000000000000    0.00000000000000             1
   -0.33333333333333    0.50000000000000    0.00000000000000             1
   -0.16666666666667    0.50000000000000    0.00000000000000             1
    0.00000000000000   -0.33333333333333    0.00000000000000             1
    0.16666666666667   -0.33333333333333    0.00000000000000             1
    0.33333333333333   -0.33333333333333    0.00000000000000             1
    0.50000000000000   -0.33333333333333    0.00000000000000             1
   -0.33333333333333   -0.33333333333333    0.00000000000000             1
   -0.16666666666667   -0.33333333333333    0.00000000000000             1
    0.00000000000000   -0.16666666666667    0.00000000000000             1
    0.16666666666667   -0.16666666666667    0.00000000000000             1
    0.33333333333333   -0.16666666666667    0.00000000000000             1
    0.50000000000000   -0.16666666666667    0.00000000000000             1
   -0.33333333333333   -0.16666666666667    0.00000000000000             1
   -0.16666666666667   -0.16666666666667    0.00000000000000             1
    0.00000000000000    0.00000000000000    0.16666666666667             1
    0.16666666666667    0.00000000000000    0.16666666666667             1
    0.33333333333333    0.00000000000000    0.16666666666667             1
    0.50000000000000    0.00000000000000    0.16666666666667             1
   -0.33333333333333    0.00000000000000    0.16666666666667             1
   -0.16666666666667    0.00000000000000    0.16666666666667             1
    0.00000000000000    0.16666666666667    0.16666666666667             1
    0.16666666666667    0.16666666666667    0.16666666666667             1
    0.33333333333333    0.16666666666667    0.16666666666667             1
    0.50000000000000    0.16666666666667    0.16666666666667             1
   -0.33333333333333    0.16666666666667    0.16666666666667             1
   -0.16666666666667    0.16666666666667    0.16666666666667             1
    0.00000000000000    0.33333333333333    0.16666666666667             1
    0.16666666666667    0.33333333333333    0.16666666666667             1
    0.33333333333333    0.33333333333333    0.16666666666667             1
    0.50000000000000    0.33333333333333    0.16666666666667             1
   -0.33333333333333    0.33333333333333    0.16666666666667             1
   -0.16666666666667    0.33333333333333    0.16666666666667             1
    0.00000000000000    0.50000000000000    0.16666666666667             1
    0.16666666666667    0.50000000000000    0.16666666666667             1
    0.33333333333333    0.50000000000000    0.16666666666667             1
    0.50000000000000    0.50000000000000    0.16666666666667             1
   -0.33333333333333    0.50000000000000    0.16666666666667             1
   -0.16666666666667    0.50000000000000    0.16666666666667             1
    0.00000000000000   -0.33333333333333    0.16666666666667             1
    0.16666666666667   -0.33333333333333    0.16666666666667             1
    0.33333333333333   -0.33333333333333    0.16666666666667             1
    0.50000000000000   -0.33333333333333    0.16666666666667             1
   -0.33333333333333   -0.33333333333333    0.16666666666667             1
   -0.16666666666667   -0.33333333333333    0.16666666666667             1
    0.00000000000000   -0.16666666666667    0.16666666666667             1
    0.16666666666667   -0.16666666666667    0.16666666666667             1
    0.33333333333333   -0.16666666666667    0.16666666666667             1
    0.50000000000000   -0.16666666666667    0.16666666666667             1
   -0.33333333333333   -0.16666666666667    0.16666666666667             1
   -0.16666666666667   -0.16666666666667    0.16666666666667             1
    0.00000000000000    0.00000000000000    0.33333333333333             1
    0.16666666666667    0.00000000000000    0.33333333333333             1
    0.33333333333333    0.00000000000000    0.33333333333333             1
    0.50000000000000    0.00000000000000    0.33333333333333             1
   -0.33333333333333    0.00000000000000    0.33333333333333             1
   -0.16666666666667    0.00000000000000    0.33333333333333             1
    0.00000000000000    0.16666666666667    0.33333333333333             1
    0.16666666666667    0.16666666666667    0.33333333333333             1
    0.33333333333333    0.16666666666667    0.33333333333333             1
    0.50000000000000    0.16666666666667    0.33333333333333             1
   -0.33333333333333    0.16666666666667    0.33333333333333             1
   -0.16666666666667    0.16666666666667    0.33333333333333             1
    0.00000000000000    0.33333333333333    0.33333333333333             1
    0.16666666666667    0.33333333333333    0.33333333333333             1
    0.33333333333333    0.33333333333333    0.33333333333333             1
    0.50000000000000    0.33333333333333    0.33333333333333             1
   -0.33333333333333    0.33333333333333    0.33333333333333             1
   -0.16666666666667    0.33333333333333    0.33333333333333             1
    0.00000000000000    0.50000000000000    0.33333333333333             1
    0.16666666666667    0.50000000000000    0.33333333333333             1
    0.33333333333333    0.50000000000000    0.33333333333333             1
    0.50000000000000    0.50000000000000    0.33333333333333             1
   -0.33333333333333    0.50000000000000    0.33333333333333             1
   -0.16666666666667    0.50000000000000    0.33333333333333             1
    0.00000000000000   -0.33333333333333    0.33333333333333             1
    0.16666666666667   -0.33333333333333    0.33333333333333             1
    0.33333333333333   -0.33333333333333    0.33333333333333             1
    0.50000000000000   -0.33333333333333    0.33333333333333             1
   -0.33333333333333   -0.33333333333333    0.33333333333333             1
   -0.16666666666667   -0.33333333333333    0.33333333333333             1
    0.00000000000000   -0.16666666666667    0.33333333333333             1
    0.16666666666667   -0.16666666666667    0.33333333333333             1
    0.33333333333333   -0.16666666666667    0.33333333333333             1
    0.50000000000000   -0.16666666666667    0.33333333333333             1
   -0.33333333333333   -0.16666666666667    0.33333333333333             1
   -0.16666666666667   -0.16666666666667    0.33333333333333             1
    0.00000000000000    0.00000000000000    0.50000000000000             1
    0.16666666666667    0.00000000000000    0.50000000000000             1
    0.33333333333333    0.00000000000000    0.50000000000000             1
    0.50000000000000    0.00000000000000    0.50000000000000             1
   -0.33333333333333    0.00000000000000    0.50000000000000             1
   -0.16666666666667    0.00000000000000    0.50000000000000             1
    0.00000000000000    0.16666666666667    0.50000000000000             1
    0.16666666666667    0.16666666666667    0.50000000000000             1
    0.33333333333333    0.16666666666667    0.50000000000000             1
    0.50000000000000    0.16666666666667    0.50000000000000             1
   -0.33333333333333    0.16666666666667    0.50000000000000             1
   -0.16666666666667    0.16666666666667    0.50000000000000             1
    0.00000000000000    0.33333333333333    0.50000000000000             1
    0.16666666666667    0.33333333333333    0.50000000000000             1
    0.33333333333333    0.33333333333333    0.50000000000000             1
    0.50000000000000    0.33333333333333    0.50000000000000             1
   -0.33333333333333    0.33333333333333    0.50000000000000             1
   -0.16666666666667    0.33333333333333    0.50000000000000             1
    0.00000000000000    0.50000000000000    0.50000000000000             1
    0.16666666666667    0.50000000000000    0.50000000000000             1
    0.33333333333333    0.50000000000000    0.50000000000000             1
    0.50000000000000    0.50000000000000    0.50000000000000             1
   -0.33333333333333    0.50000000000000    0.50000000000000             1
   -0.16666666666667    0.50000000000000    0.50000000000000             1
    0.00000000000000   -0.33333333333333    0.50000000000000             1
    0.16666666666667   -0.33333333333333    0.50000000000000             1
    0.33333333333333   -0.33333333333333    0.50000000000000             1
    0.50000000000000   -0.33333333333333    0.50000000000000             1
   -0.33333333333333   -0.33333333333333    0.50000000000000             1
   -0.16666666666667   -0.33333333333333    0.50000000000000             1
    0.00000000000000   -0.16666666666667    0.50000000000000             1
    0.16666666666667   -0.16666666666667    0.50000000000000             1
    0.33333333333333   -0.16666666666667    0.50000000000000             1
    0.50000000000000   -0.16666666666667    0.50000000000000             1
   -0.33333333333333   -0.16666666666667    0.50000000000000             1
   -0.16666666666667   -0.16666666666667    0.50000000000000             1
    0.00000000000000    0.00000000000000   -0.33333333333333             1
    0.16666666666667    0.00000000000000   -0.33333333333333             1
    0.33333333333333    0.00000000000000   -0.33333333333333             1
    0.50000000000000    0.00000000000000   -0.33333333333333             1
   -0.33333333333333    0.00000000000000   -0.33333333333333             1
   -0.16666666666667    0.00000000000000   -0.33333333333333             1
    0.00000000000000    0.16666666666667   -0.33333333333333             1
    0.16666666666667    0.16666666666667   -0.33333333333333             1
    0.33333333333333    0.16666666666667   -0.33333333333333             1
    0.50000000000000    0.16666666666667   -0.33333333333333             1
   -0.33333333333333    0.16666666666667   -0.33333333333333             1
   -0.16666666666667    0.16666666666667   -0.33333333333333             1
    0.00000000000000    0.33333333333333   -0.33333333333333             1
    0.16666666666667    0.33333333333333   -0.33333333333333             1
    0.33333333333333    0.33333333333333   -0.33333333333333             1
    0.50000000000000    0.33333333333333   -0.33333333333333             1
   -0.33333333333333    0.33333333333333   -0.33333333333333             1
   -0.16666666666667    0.33333333333333   -0.33333333333333             1
    0.00000000000000    0.50000000000000   -0.33333333333333             1
    0.16666666666667    0.50000000000000   -0.33333333333333             1
    0.33333333333333    0.50000000000000   -0.33333333333333             1
    0.50000000000000    0.50000000000000   -0.33333333333333             1
   -0.33333333333333    0.50000000000000   -0.33333333333333             1
   -0.16666666666667    0.50000000000000   -0.33333333333333             1
    0.00000000000000   -0.33333333333333   -0.33333333333333             1
    0.16666666666667   -0.33333333333333   -0.33333333333333             1
    0.33333333333333   -0.33333333333333   -0.33333333333333             1
    0.50000000000000   -0.33333333333333   -0.33333333333333             1
   -0.33333333333333   -0.33333333333333   -0.33333333333333             1
   -0.16666666666667   -0.33333333333333   -0.33333333333333             1
    0.00000000000000   -0.16666666666667   -0.33333333333333             1
    0.16666666666667   -0.16666666666667   -0.33333333333333             1
    0.33333333333333   -0.16666666666667   -0.33333333333333             1
    0.50000000000000   -0.16666666666667   -0.33333333333333             1
   -0.33333333333333   -0.16666666666667   -0.33333333333333             1
   -0.16666666666667   -0.16666666666667   -0.33333333333333             1
    0.00000000000000    0.00000000000000   -0.16666666666667             1
    0.16666666666667    0.00000000000000   -0.16666666666667             1
    0.33333333333333    0.00000000000000   -0.16666666666667             1
    0.50000000000000    0.00000000000000   -0.16666666666667             1
   -0.33333333333333    0.00000000000000   -0.16666666666667             1
   -0.16666666666667    0.00000000000000   -0.16666666666667             1
    0.00000000000000    0.16666666666667   -0.16666666666667             1
    0.16666666666667    0.16666666666667   -0.16666666666667             1
    0.33333333333333    0.16666666666667   -0.16666666666667             1
    0.50000000000000    0.16666666666667   -0.16666666666667             1
   -0.33333333333333    0.16666666666667   -0.16666666666667             1
   -0.16666666666667    0.16666666666667   -0.16666666666667             1
    0.00000000000000    0.33333333333333   -0.16666666666667             1
    0.16666666666667    0.33333333333333   -0.16666666666667             1
    0.33333333333333    0.33333333333333   -0.16666666666667             1
    0.50000000000000    0.33333333333333   -0.16666666666667             1
   -0.33333333333333    0.33333333333333   -0.16666666666667             1
   -0.16666666666667    0.33333333333333   -0.16666666666667             1
    0.00000000000000    0.50000000000000   -0.16666666666667             1
    0.16666666666667    0.50000000000000   -0.16666666666667             1
    0.33333333333333    0.50000000000000   -0.16666666666667             1
    0.50000000000000    0.50000000000000   -0.16666666666667             1
   -0.33333333333333    0.50000000000000   -0.16666666666667             1
   -0.16666666666667    0.50000000000000   -0.16666666666667             1
    0.00000000000000   -0.33333333333333   -0.16666666666667             1
    0.16666666666667   -0.33333333333333   -0.16666666666667             1
    0.33333333333333   -0.33333333333333   -0.16666666666667             1
    0.50000000000000   -0.33333333333333   -0.16666666666667             1
   -0.33333333333333   -0.33333333333333   -0.16666666666667             1
   -0.16666666666667   -0.33333333333333   -0.16666666666667             1
    0.00000000000000   -0.16666666666667   -0.16666666666667             1
    0.16666666666667   -0.16666666666667   -0.16666666666667             1
    0.33333333333333   -0.16666666666667   -0.16666666666667             1
    0.50000000000000   -0.16666666666667   -0.16666666666667             1
   -0.33333333333333   -0.16666666666667   -0.16666666666667             1
   -0.16666666666667   -0.16666666666667   -0.16666666666667             1
0.00000000  0.00000000  0.00000000   0.00
0.00724638  0.00000000  0.00724638   0.00
0.01449275  0.00000000  0.01449275   0.00
0.02173913  0.00000000  0.02173913   0.00
0.02898551  0.00000000  0.02898551   0.00
0.03623188  0.00000000  0.03623188   0.00
0.04347826  0.00000000  0.04347826   0.00
0.05072464  0.00000000  0.05072464   0.00
0.05797102  0.00000000  0.05797102   0.00
0.06521739  0.00000000  0.06521739   0.00
0.07246377  0.00000000  0.07246377   0.00
0.07971014  0.00000000  0.07971014   0.00
0.08695652  0.00000000  0.08695652   0.00
0.09420290  0.00000000  0.09420290   0.00
0.10144928  0.00000000  0.10144928   0.00
0.10869565  0.00000000  0.10869565   0.00
0.11594203  0.00000000  0.11594203   0.00
0.12318841  0.00000000  0.12318841   0.00
0.13043478  0.00000000  0.13043478   0.00
0.13768117  0.00000000  0.13768117   0.00
0.14492753  0.00000000  0.14492753   0.00
0.15217392  0.00000000  0.15217392   0.00
0.15942028  0.00000000  0.15942028   0.00
0.16666667  0.00000000  0.16666667   0.00
0.17391305  0.00000000  0.17391305   0.00
0.18115942  0.00000000  0.18115942   0.00
0.18840580  0.00000000  0.18840580   0.00
0.19565219  0.00000000  0.19565219   0.00
0.20289856  0.00000000  0.20289856   0.00
0.21014492  0.00000000  0.21014492   0.00
0.21739130  0.00000000  0.21739130   0.00
0.22463769  0.00000000  0.22463769   0.00
0.23188406  0.00000000  0.23188406   0.00
0.23913044  0.00000000  0.23913044   0.00
0.24637683  0.00000000  0.24637683   0.00
0.25362319  0.00000000  0.25362319   0.00
0.26086956  0.00000000  0.26086956   0.00
0.26811594  0.00000000  0.26811594   0.00
0.27536234  0.00000000  0.27536234   0.00
0.28260869  0.00000000  0.28260869   0.00
0.28985506  0.00000000  0.28985506   0.00
0.29710147  0.00000000  0.29710147   0.00
0.30434784  0.00000000  0.30434784   0.00
0.31159422  0.00000000  0.31159422   0.00
0.31884056  0.00000000  0.31884056   0.00
0.32608697  0.00000000  0.32608697   0.00
0.33333334  0.00000000  0.33333334   0.00
0.34057972  0.00000000  0.34057972   0.00
0.34782609  0.00000000  0.34782609   0.00
0.35507244  0.00000000  0.35507244   0.00
0.36231884  0.00000000  0.36231884   0.00
0.36956525  0.00000000  0.36956525   0.00
0.37681159  0.00000000  0.37681159   0.00
0.38405797  0.00000000  0.38405797   0.00
0.39130437  0.00000000  0.39130437   0.00
0.39855072  0.00000000  0.39855072   0.00
0.40579712  0.00000000  0.40579712   0.00
0.41304350  0.00000000  0.41304350   0.00
0.42028984  0.00000000  0.42028984   0.00
0.42753625  0.00000000  0.42753625   0.00
0.43478259  0.00000000  0.43478259   0.00
0.44202900  0.00000000  0.44202900   0.00
0.44927537  0.00000000  0.44927537   0.00
0.45652172  0.00000000  0.45652172   0.00
0.46376812  0.00000000  0.46376812   0.00
0.47101453  0.00000000  0.47101453   0.00
0.47826087  0.00000000  0.47826087   0.00
0.48550725  0.00000000  0.48550725   0.00
0.49275365  0.00000000  0.49275365   0.00
0.50000000  0.00000000  0.50000000   0.00
0.49722221  0.00833333  0.50555557   0.00
0.49444443  0.01666667  0.51111114   0.00
0.49166667  0.02500000  0.51666665   0.00
0.48888889  0.03333333  0.52222222   0.00
0.48611110  0.04166666  0.52777779   0.00
0.48333335  0.05000000  0.53333330   0.00
0.48055556  0.05833333  0.53888887   0.00
0.47777778  0.06666666  0.54444444   0.00
0.47499999  0.07500000  0.55000001   0.00
0.47222221  0.08333333  0.55555558   0.00
0.46944445  0.09166667  0.56111109   0.00
0.46666667  0.10000000  0.56666666   0.00
0.46388888  0.10833333  0.57222223   0.00
0.46111113  0.11666667  0.57777774   0.00
0.45833334  0.12500000  0.58333331   0.00
0.45555556  0.13333333  0.58888888   0.00
0.45277777  0.14166667  0.59444445   0.00
0.44999999  0.14999999  0.60000002   0.00
0.44722223  0.15833333  0.60555553   0.00
0.44444445  0.16666666  0.61111110   0.00
0.44166666  0.17500000  0.61666667   0.00
0.43888888  0.18333334  0.62222224   0.00
0.43611112  0.19166666  0.62777776   0.00
0.43333334  0.20000000  0.63333333   0.00
0.43055555  0.20833334  0.63888890   0.00
0.42777777  0.21666665  0.64444447   0.00
0.42500001  0.22499999  0.64999998   0.00
0.42222223  0.23333333  0.65555555   0.00
0.41944444  0.24166666  0.66111112   0.00
0.41666669  0.25000000  0.66666663   0.00
0.41388890  0.25833333  0.67222220   0.00
0.41111112  0.26666665  0.67777777   0.00
0.40833333  0.27500001  0.68333334   0.00
0.40555555  0.28333333  0.68888891   0.00
0.40277779  0.29166666  0.69444442   0.00
0.40000001  0.29999998  0.69999999   0.00
0.39722222  0.30833334  0.70555556   0.00
0.39444447  0.31666666  0.71111107   0.00
0.39166668  0.32500002  0.71666664   0.00
0.38888890  0.33333331  0.72222221   0.00
0.38611111  0.34166664  0.72777778   0.00
0.38333333  0.34999999  0.73333335   0.00
0.38055557  0.35833332  0.73888886   0.00
0.37777779  0.36666667  0.74444443   0.00
0.37500000  0.37500000  0.75000000   0.00
0.37078652  0.37078652  0.74157304   0.00
0.36657304  0.36657304  0.73314607   0.00
0.36235955  0.36235955  0.72471911   0.00
0.35814607  0.35814607  0.71629214   0.00
0.35393259  0.35393259  0.70786518   0.00
0.34971911  0.34971911  0.69943821   0.00
0.34550563  0.34550563  0.69101125   0.00
0.34129214  0.34129214  0.68258429   0.00
0.33707866  0.33707866  0.67415732   0.00
0.33286518  0.33286518  0.66573036   0.00
0.32865167  0.32865167  0.65730333   0.00
0.32443821  0.32443821  0.64887643   0.00
0.32022470  0.32022470  0.64044940   0.00
0.31601122  0.31601122  0.63202244   0.00
0.31179774  0.31179774  0.62359548   0.00
0.30758426  0.30758426  0.61516851   0.00
0.30337077  0.30337077  0.60674155   0.00
0.29915729  0.29915729  0.59831458   0.00
0.29494381  0.29494381  0.58988762   0.00
0.29073033  0.29073033  0.58146065   0.00
0.28651685  0.28651685  0.57303369   0.00
0.28230336  0.28230336  0.56460673   0.00
0.27808988  0.27808988  0.55617976   0.00
0.27387640  0.27387640  0.54775280   0.00
0.26966292  0.26966292  0.53932583   0.00
0.26544943  0.26544943  0.53089887   0.00
0.26123595  0.26123595  0.52247190   0.00
0.25702247  0.25702247  0.51404494   0.00
0.25280899  0.25280899  0.50561798   0.00
0.24859549  0.24859549  0.49719098   0.00
0.24438201  0.24438201  0.48876402   0.00
0.24016853  0.24016853  0.48033705   0.00
0.23595504  0.23595504  0.47191009   0.00
0.23174156  0.23174156  0.46348312   0.00
0.22752808  0.22752808  0.45505616   0.00
0.22331460  0.22331460  0.44662920   0.00
0.21910112  0.21910112  0.43820223   0.00
0.21488763  0.21488763  0.42977527   0.00
0.21067415  0.21067415  0.42134830   0.00
0.20646067  0.20646067  0.41292134   0.00
0.20224719  0.20224719  0.40449437   0.00
0.19803369  0.19803369  0.39606738   0.00
0.19382021  0.19382021  0.38764042   0.00
0.18960673  0.18960673  0.37921345   0.00
0.18539324  0.18539324  0.37078649   0.00
0.18117976  0.18117976  0.36235952   0.00
0.17696628  0.17696628  0.35393256   0.00
0.17275280  0.17275280  0.34550560   0.00
0.16853930  0.16853930  0.33707860   0.00
0.16432583  0.16432583  0.32865167   0.00
0.16011234  0.16011234  0.32022467   0.00
0.15589887  0.15589887  0.31179774   0.00
0.15168537  0.15168537  0.30337074   0.00
0.14747190  0.14747190  0.29494381   0.00
0.14325841  0.14325841  0.28651682   0.00
0.13904493  0.13904493  0.27808985   0.00
0.13483144  0.13483144  0.26966289   0.00
0.13061796  0.13061796  0.26123592   0.00
0.12640448  0.12640448  0.25280896   0.00
0.12219098  0.12219098  0.24438196   0.00
0.11797753  0.11797753  0.23595506   0.00
0.11376402  0.11376402  0.22752804   0.00
0.10955057  0.10955057  0.21910113   0.00
0.10533705  0.10533705  0.21067411   0.00
0.10112357  0.10112357  0.20224714   0.00
0.09691009  0.09691009  0.19382018   0.00
0.09269661  0.09269661  0.18539321   0.00
0.08848312  0.08848312  0.17696625   0.00
0.08426964  0.08426964  0.16853929   0.00
0.08005616  0.08005616  0.16011232   0.00
0.07584268  0.07584268  0.15168536   0.00
0.07162920  0.07162920  0.14325839   0.00
0.06741571  0.06741571  0.13483143   0.00
0.06320223  0.06320223  0.12640446   0.00
0.05898872  0.05898872  0.11797744   0.00
0.05477527  0.05477527  0.10955054   0.00
0.05056179  0.05056179  0.10112357   0.00
0.04634830  0.04634830  0.09269661   0.00
0.04213479  0.04213479  0.08426958   0.00
0.03792134  0.03792134  0.07584268   0.00
0.03370786  0.03370786  0.06741571   0.00
0.02949437  0.02949437  0.05898875   0.00
0.02528086  0.02528086  0.05056173   0.00
0.02106738  0.02106738  0.04213476   0.00
0.01685393  0.01685393  0.03370786   0.00
0.01264042  0.01264042  0.02528083   0.00
0.00842693  0.00842693  0.01685387   0.00
0.00421345  0.00421345  0.00842690   0.00
0.00000000  0.00000000  0.00000000   0.00
0.00595238  0.00595238  0.00595238   0.00
0.01190476  0.01190476  0.01190476   0.00
0.01785714  0.01785714  0.01785714   0.00
0.02380952  0.02380952  0.02380952   0.00
0.02976190  0.02976190  0.02976190   0.00
0.03571428  0.03571428  0.03571428   0.00
0.04166667  0.04166667  0.04166667   0.00
0.04761904  0.04761904  0.04761904   0.00
0.05357143  0.05357143  0.05357143   0.00
0.05952381  0.05952381  0.05952381   0.00
0.06547619  0.06547619  0.06547619   0.00
0.07142857  0.07142857  0.07142857   0.00
0.07738095  0.07738095  0.07738095   0.00
0.08333334  0.08333334  0.08333334   0.00
0.08928571  0.08928571  0.08928571   0.00
0.09523809  0.09523809  0.09523809   0.00
0.10119048  0.10119048  0.10119048   0.00
0.10714285  0.10714285  0.10714285   0.00
0.11309523  0.11309523  0.11309523   0.00
0.11904762  0.11904762  0.11904762   0.00
0.12499999  0.12499999  0.12499999   0.00
0.13095237  0.13095237  0.13095237   0.00
0.13690476  0.13690476  0.13690476   0.00
0.14285713  0.14285713  0.14285713   0.00
0.14880952  0.14880952  0.14880952   0.00
0.15476190  0.15476190  0.15476190   0.00
0.16071427  0.16071427  0.16071427   0.00
0.16666667  0.16666667  0.16666667   0.00
0.17261904  0.17261904  0.17261904   0.00
0.17857142  0.17857142  0.17857142   0.00
0.18452381  0.18452381  0.18452381   0.00
0.19047618  0.19047618  0.19047618   0.00
0.19642855  0.19642855  0.19642855   0.00
0.20238096  0.20238096  0.20238096   0.00
0.20833333  0.20833333  0.20833333   0.00
0.21428570  0.21428570  0.21428570   0.00
0.22023809  0.22023809  0.22023809   0.00
0.22619046  0.22619046  0.22619046   0.00
0.23214284  0.23214284  0.23214284   0.00
0.23809524  0.23809524  0.23809524   0.00
0.24404761  0.24404761  0.24404761   0.00
0.24999999  0.24999999  0.24999999   0.00
0.25595239  0.25595239  0.25595239   0.00
0.26190475  0.26190475  0.26190475   0.00
0.26785713  0.26785713  0.26785713   0.00
0.27380952  0.27380952  0.27380952   0.00
0.27976188  0.27976188  0.27976188   0.00
0.28571427  0.28571427  0.28571427   0.00
0.29166663  0.29166663  0.29166663   0.00
0.29761904  0.29761904  0.29761904   0.00
0.30357143  0.30357143  0.30357143   0.00
0.30952379  0.30952379  0.30952379   0.00
0.31547618  0.31547618  0.31547618   0.00
0.32142854  0.32142854  0.32142854   0.00
0.32738093  0.32738093  0.32738093   0.00
0.33333334  0.33333334  0.33333334   0.00
0.33928570  0.33928570  0.33928570   0.00
0.34523809  0.34523809  0.34523809   0.00
0.35119045  0.35119045  0.35119045   0.00
0.35714284  0.35714284  0.35714284   0.00
0.36309519  0.36309519  0.36309519   0.00
0.36904761  0.36904761  0.36904761   0.00
0.37500000  0.37500000  0.37500000   0.00
0.38095236  0.38095236  0.38095236   0.00
0.38690475  0.38690475  0.38690475   0.00
0.39285710  0.39285710  0.39285710   0.00
0.39880952  0.39880952  0.39880952   0.00
0.40476191  0.40476191  0.40476191   0.00
0.41071427  0.41071427  0.41071427   0.00
0.41666666  0.41666666  0.41666666   0.00
0.42261901  0.42261901  0.42261901   0.00
0.42857140  0.42857140  0.42857140   0.00
0.43452382  0.43452382  0.43452382   0.00
0.44047618  0.44047618  0.44047618   0.00
0.44642857  0.44642857  0.44642857   0.00
0.45238093  0.45238093  0.45238093   0.00
0.45833331  0.45833331  0.45833331   0.00
0.46428567  0.46428567  0.46428567   0.00
0.47023809  0.47023809  0.47023809   0.00
0.47619048  0.47619048  0.47619048   0.00
0.48214284  0.48214284  0.48214284   0.00
0.48809522  0.48809522  0.48809522   0.00
0.49404758  0.49404758  0.49404758   0.00
0.49999997  0.49999997  0.49999997   0.00
