#=======================================================
# FHI-aims file: /tmp/tmpftom_5l6/tar/input_files/geometry.in
# Created using the Atomic Simulation Environment (ASE)
# Sat May 30 09:01:35 2020
#=======================================================
lattice_vector 4.0749599999999999 0.0000000000000000 0.0000000000000000 
lattice_vector 2.0374800000000000 3.5290200000000000 0.0000000000000000 
lattice_vector 2.0374800000000000 1.1763399999999999 3.3271899999999999 
atom_frac 0.8750000000000000 0.8749999999999999 0.8750000000000000 Ge
atom_frac 0.1250000000000000 0.1250000000000000 0.1250000000000000 Ge
