#===============================================================================
# FHI-aims file: /tmp/tmpftom_5l6/tar/input_files/control.in
# Created using the Atomic Simulation Environment (ASE)
# Sat May 30 09:01:35 2020
#===============================================================================
xc                                 pbesol
k_grid                             10 10 10
relativistic                       atomic_zora scalar
spin                               collinear
include_spin_orbit

output                             band   0.00000  0.00000  0.00000   0.50000  0.00000  0.50000   44 G  X  
output                             band   0.50000  0.00000  0.50000   0.50000  0.25000  0.75000   22 X  W  
output                             band   0.50000  0.25000  0.75000   0.37500  0.37500  0.75000   15 W  K  
output                             band   0.37500  0.37500  0.75000   0.00000  0.00000  0.00000   46 K  G  
output                             band   0.00000  0.00000  0.00000   0.50000  0.50000  0.50000   38 G  L  
output                             band   0.50000  0.50000  0.50000   0.62500  0.25000  0.62500   27 L  U  
output                             band   0.62500  0.25000  0.62500   0.50000  0.25000  0.75000   15 U  W  
output                             band   0.50000  0.25000  0.75000   0.50000  0.50000  0.50000   31 W  L  
output                             band   0.50000  0.50000  0.50000   0.37500  0.37500  0.75000   27 L  K  
output                             band   0.62500  0.25000  0.62500   0.50000  0.00000  0.50000   15 U  X  
exx_band_structure_version 1
#===============================================================================

################################################################################
#
#  FHI-aims code project
#  VB, Fritz-Haber Institut, 2009
#
#  Suggested "light" defaults for Ge atom (to be pasted into control.in file)
#  Be sure to double-check any results obtained with these settings for post-processing,
#  e.g., with the "tight" defaults and larger basis sets.
#
################################################################################
  species        Ge
#     global species definitions
    nucleus             32
    mass                72.64
#
    l_hartree           4
#
    cut_pot             3.5          1.5  1.0
    basis_dep_cutoff    1e-4
#
    radial_base         54 5.0
    radial_multiplier   1
    angular_grids       specified
      division   0.0947  110
      division   0.1314  194
      division   0.7746  302
#      division   0.8710  434
#      division   0.9770  590
#      division   1.1356  770
#      division   2.6430  974
#      outer_grid  974
      outer_grid  302
################################################################################
#
#  Definition of "minimal" basis
#
################################################################################
#     valence basis states
    valence      4  s   2.
    valence      4  p   2.
    valence      3  d  10.
#     ion occupancy
    ion_occ      4  s   1.
    ion_occ      4  p   1.
    ion_occ      3  d  10.
################################################################################
#
#  Suggested additional basis functions. For production calculations, 
#  uncomment them one after another (the most important basis functions are
#  listed first).
#
#  Constructed for dimers: 1.80 A, 2.00 A, 2.35 A, 3.00 A, 4.00 A
#
################################################################################
#  "First tier" - improvements: -329.04 meV to -37.61 meV 
     hydro 2 p 1.4
     hydro 3 d 4.3
#     hydro 4 f 7.4
     hydro 3 s 3.4
#  "Second tier" - improvements: -13.91 meV to -1.23 meV
#     hydro 5 g 10.8
#     hydro 3 d 2.5
#     hydro 3 p 3.3
#     hydro 4 f 12
#     hydro 6 h 15.6
#     hydro 3 s 7.2
#  "Third tier" - improvements: -1.47 meV to -0.40 meV
#     hydro 3 d 5.8
#     hydro 4 f 4.3
#     hydro 5 g 11.6
#     hydro 5 s 14.8
#     hydro 4 p 3.9
#  "Fourth tier"  -improvements: -0.39 meV to -0.11 meV
#     hydro 4 f 23.2
#     hydro 2 s 6.2
#     hydro 5 d 9.8
#     hydro 5 p 6
#     hydro 6 h 14.8
#  Further functions - -0.13 meV and below
#     hydro 5 f 9.6
